# Hz S DB R 50
! CMT, CMT804U, 21380002, 24.2.2/4
! Date: 25/11/2025 13:44:52
! Data: Format (Calibration Info)
! Freq	S11:dB/Ang(F2)	S21:dB/Ang(F2)	S12:dB/Ang(F2)	S22:dB/Ang(F2)
1.00000000000E+06	-6.48382647617E+01	-1.75851509382E+02	-9.72372229375E+00	-4.92630269784E-02	-9.71884131832E+00	-6.81337568650E-02	-8.55643586306E+01	-3.48172659609E+01
8.99900000000E+06	-6.58907984396E+01	1.70233468424E+02	-9.72484256154E+00	-2.87184255541E-01	-9.72079443467E+00	-3.08660823186E-01	-6.95255440459E+01	6.54882824093E+01
1.69980000000E+07	-6.61656156843E+01	1.66394332368E+02	-9.72567243834E+00	-5.30929275685E-01	-9.72119304758E+00	-5.59640489218E-01	-6.54433520689E+01	6.72933615631E+01
2.49970000000E+07	-6.79723352267E+01	1.66878487767E+02	-9.72598066977E+00	-7.87034152881E-01	-9.72439482199E+00	-7.92055932945E-01	-6.31124208159E+01	6.71228822313E+01
3.29960000000E+07	-6.83866623281E+01	1.70201403745E+02	-9.72771150799E+00	-1.01866771623E+00	-9.72371165510E+00	-1.03542713087E+00	-6.11478045267E+01	6.82812301813E+01
4.09950000000E+07	-6.88536394304E+01	1.68183591496E+02	-9.72862892609E+00	-1.25514891746E+00	-9.72440753388E+00	-1.28120898999E+00	-5.96475915700E+01	6.72475500415E+01
4.89940000000E+07	-6.97047106726E+01	1.70653288918E+02	-9.72969369630E+00	-1.50405602606E+00	-9.72527339578E+00	-1.50932168078E+00	-5.88421709939E+01	6.65389815336E+01
5.69930000000E+07	-7.06412461438E+01	1.76073453046E+02	-9.73053401409E+00	-1.73213834634E+00	-9.72717543523E+00	-1.74800257957E+00	-5.78762083501E+01	6.70375075438E+01
6.49920000000E+07	-7.14203819810E+01	1.77572118195E+02	-9.73095694646E+00	-1.97622143196E+00	-9.72722541442E+00	-1.99128895890E+00	-5.71825844354E+01	6.69028592055E+01
7.29910000000E+07	-7.10258608955E+01	-1.70032014685E+02	-9.73173133452E+00	-2.20732137962E+00	-9.72745550954E+00	-2.23141563312E+00	-5.63753581607E+01	6.70138259095E+01
8.09900000000E+07	-7.18003202134E+01	-1.66481906041E+02	-9.73280010038E+00	-2.44779734119E+00	-9.72865762001E+00	-2.47290325938E+00	-5.57066822132E+01	6.62179275905E+01
8.89890000000E+07	-7.20911955096E+01	-1.52449864011E+02	-9.73350812886E+00	-2.68042069509E+00	-9.72934621753E+00	-2.70060522913E+00	-5.51797002381E+01	6.67250766255E+01
9.69880000000E+07	-7.11751170574E+01	-1.36177177147E+02	-9.73496141301E+00	-2.91483200179E+00	-9.72928310001E+00	-2.93758776821E+00	-5.45579344959E+01	6.59410615061E+01
1.04987000000E+08	-7.08790843135E+01	-1.36724628868E+02	-9.73623812645E+00	-3.15627421325E+00	-9.73179694887E+00	-3.17566249861E+00	-5.43490112131E+01	6.50636147633E+01
1.12986000000E+08	-7.03713355542E+01	-1.21852232700E+02	-9.73627088390E+00	-3.38100574544E+00	-9.73142190218E+00	-3.41214163442E+00	-5.38661782283E+01	6.56089720097E+01
1.20985000000E+08	-6.89427491803E+01	-1.18682595607E+02	-9.73645473118E+00	-3.63275286102E+00	-9.73314211544E+00	-3.65690994383E+00	-5.34417005344E+01	6.44478131363E+01
1.28984000000E+08	-6.78139148974E+01	-1.13103892994E+02	-9.73653055487E+00	-3.86426821507E+00	-9.73255726634E+00	-3.88777303794E+00	-5.28691399584E+01	6.47824084617E+01
1.36983000000E+08	-6.73421901011E+01	-1.10498427913E+02	-9.73745920348E+00	-4.10343478749E+00	-9.73384325721E+00	-4.11256478939E+00	-5.25975717984E+01	6.50190843057E+01
1.44982000000E+08	-6.65122655122E+01	-1.04912826383E+02	-9.73770571548E+00	-4.33136572024E+00	-9.73477423007E+00	-4.35074336654E+00	-5.21569651581E+01	6.49279813097E+01
1.52981000000E+08	-6.63380820970E+01	-1.06479867206E+02	-9.73919534805E+00	-4.57026392001E+00	-9.73375885720E+00	-4.58958626940E+00	-5.17522719117E+01	6.52639344669E+01
1.60980000000E+08	-6.55135909034E+01	-1.02506671627E+02	-9.74027595316E+00	-4.80354004216E+00	-9.73419987917E+00	-4.83416492896E+00	-5.13586446491E+01	6.54748913252E+01
1.68979000000E+08	-6.48683885307E+01	-9.91424776063E+01	-9.73945137943E+00	-5.04309695842E+00	-9.73564242304E+00	-5.06754681991E+00	-5.10257775738E+01	6.55856926951E+01
1.76978000000E+08	-6.47883765795E+01	-9.82651943329E+01	-9.74136606769E+00	-5.27521043652E+00	-9.73739332085E+00	-5.29047086211E+00	-5.07783768646E+01	6.54539571751E+01
1.84977000000E+08	-6.40313796062E+01	-9.63882664642E+01	-9.74242431119E+00	-5.50227864347E+00	-9.73770822994E+00	-5.53339034174E+00	-5.04387019729E+01	6.61500726936E+01
1.92976000000E+08	-6.39990142556E+01	-9.59727151602E+01	-9.74243957309E+00	-5.74512460277E+00	-9.73834409233E+00	-5.76729307465E+00	-5.02401706992E+01	6.70123020477E+01
2.00975000000E+08	-6.32886066032E+01	-9.60052671967E+01	-9.74185086896E+00	-5.97290427525E+00	-9.73791892833E+00	-6.00290396140E+00	-4.99634129137E+01	6.70477264017E+01
2.08974000000E+08	-6.26484659978E+01	-9.44820346053E+01	-9.74201095584E+00	-6.20388940500E+00	-9.73800791411E+00	-6.23407742244E+00	-4.97065348106E+01	6.78646440483E+01
2.16973000000E+08	-6.22650045687E+01	-9.32558645104E+01	-9.74312495875E+00	-6.44355602841E+00	-9.73878587249E+00	-6.46544130798E+00	-4.94871338055E+01	6.82161759347E+01
2.24972000000E+08	-6.23038632797E+01	-9.42132003357E+01	-9.74483855976E+00	-6.67679168354E+00	-9.73965842386E+00	-6.70176933146E+00	-4.92959127613E+01	6.84118508526E+01
2.32971000000E+08	-6.22199182073E+01	-9.01768527617E+01	-9.74332371329E+00	-6.91589110943E+00	-9.74070767956E+00	-6.93346287081E+00	-4.90519592563E+01	6.89056312664E+01
2.40970000000E+08	-6.15965915527E+01	-9.17679545456E+01	-9.74497358908E+00	-7.14664761020E+00	-9.74059958730E+00	-7.16998254940E+00	-4.89052630738E+01	6.85464708799E+01
2.48969000000E+08	-6.12400503632E+01	-8.98735573640E+01	-9.74446238775E+00	-7.37825897396E+00	-9.73953562153E+00	-7.40420859005E+00	-4.87014103336E+01	6.91231472688E+01
2.56968000000E+08	-6.08772742191E+01	-8.97367988747E+01	-9.74580287964E+00	-7.62707686995E+00	-9.74264286770E+00	-7.63137960198E+00	-4.85178018049E+01	6.91263481002E+01
2.64967000000E+08	-6.07542180024E+01	-8.82865509161E+01	-9.74623117497E+00	-7.85213532430E+00	-9.74300165386E+00	-7.87846271078E+00	-4.82944119986E+01	6.87484789683E+01
2.72966000000E+08	-6.03048222515E+01	-8.66897669255E+01	-9.74772651832E+00	-8.09431075925E+00	-9.74145433948E+00	-8.11025385358E+00	-4.81650061262E+01	6.89343513196E+01
2.80965000000E+08	-6.02912452566E+01	-8.77167036701E+01	-9.74792088267E+00	-8.32095113758E+00	-9.74287681789E+00	-8.34359188471E+00	-4.79533310428E+01	6.86030178667E+01
2.88964000000E+08	-6.01568218747E+01	-8.50078381388E+01	-9.74814934075E+00	-8.54201146115E+00	-9.74428305128E+00	-8.57220579109E+00	-4.77517852040E+01	6.86080677400E+01
2.96963000000E+08	-5.97514103422E+01	-8.56280092967E+01	-9.74899229801E+00	-8.77688172549E+00	-9.74476441973E+00	-8.80380645820E+00	-4.75751246362E+01	6.85704995111E+01
3.04962000000E+08	-5.96616675754E+01	-8.58774280997E+01	-9.74997480671E+00	-9.01351323579E+00	-9.74509875508E+00	-9.04181440964E+00	-4.73491817753E+01	6.86214180321E+01
3.12961000000E+08	-5.96395708397E+01	-8.42741128538E+01	-9.74985870097E+00	-9.23953234341E+00	-9.74687488254E+00	-9.26479944650E+00	-4.71120819339E+01	6.85365802183E+01
3.20960000000E+08	-5.93998827500E+01	-8.60232465410E+01	-9.75099336791E+00	-9.48108481845E+00	-9.74627262760E+00	-9.49631803841E+00	-4.69704560018E+01	6.84171649713E+01
3.28959000000E+08	-5.93158013067E+01	-8.47256322645E+01	-9.75102303494E+00	-9.70085814319E+00	-9.74574602057E+00	-9.74320799033E+00	-4.67557503093E+01	6.87651639663E+01
3.36958000000E+08	-5.90717577042E+01	-8.49837460548E+01	-9.74918632174E+00	-9.93844971390E+00	-9.74618882252E+00	-9.97353175053E+00	-4.65642952194E+01	6.84015417719E+01
3.44957000000E+08	-5.87856792586E+01	-8.59585695620E+01	-9.75128012903E+00	-1.01821096655E+01	-9.74733764048E+00	-1.01996380021E+01	-4.63869348781E+01	6.88297262881E+01
3.52956000000E+08	-5.85564786897E+01	-8.43243097425E+01	-9.75058590744E+00	-1.04149603267E+01	-9.74668952448E+00	-1.04300276222E+01	-4.62141264915E+01	6.89978033063E+01
3.60955000000E+08	-5.83181593449E+01	-8.60494498575E+01	-9.75074501226E+00	-1.06481710174E+01	-9.74718594185E+00	-1.06713575890E+01	-4.60682012820E+01	6.87707319617E+01
3.68954000000E+08	-5.80358585197E+01	-8.59792906000E+01	-9.75188588401E+00	-1.08865165189E+01	-9.74869449838E+00	-1.09076519990E+01	-4.59124559267E+01	6.91200659074E+01
3.76953000000E+08	-5.78953410304E+01	-8.64523201282E+01	-9.75193379883E+00	-1.11150626488E+01	-9.74765926481E+00	-1.11428210056E+01	-4.58017612565E+01	6.92726702063E+01
3.84952000000E+08	-5.77193583453E+01	-8.65881587522E+01	-9.75353801874E+00	-1.13495542032E+01	-9.74833581462E+00	-1.13686621458E+01	-4.57019021804E+01	6.94620416469E+01
3.92951000000E+08	-5.73402383708E+01	-8.67985326143E+01	-9.75342054410E+00	-1.15817782133E+01	-9.74881385354E+00	-1.16112314087E+01	-4.55620487659E+01	6.96528428139E+01
4.00950000000E+08	-5.70271504326E+01	-8.61719931894E+01	-9.75456646635E+00	-1.18158807402E+01	-9.74938934336E+00	-1.18410994559E+01	-4.54339877134E+01	6.94789187093E+01
4.08949000000E+08	-5.69769800700E+01	-8.50196276382E+01	-9.75539058925E+00	-1.20455564569E+01	-9.75119776494E+00	-1.20633771717E+01	-4.52980760421E+01	6.97331914649E+01
4.16948000000E+08	-5.64189050206E+01	-8.44755024931E+01	-9.75452168195E+00	-1.22810359227E+01	-9.75129761201E+00	-1.22988073449E+01	-4.52167935932E+01	6.97357650989E+01
4.24947000000E+08	-5.66507275841E+01	-8.45710157149E+01	-9.75541717379E+00	-1.25090713120E+01	-9.75025492275E+00	-1.25242007950E+01	-4.51298915575E+01	6.93327676558E+01
4.32946000000E+08	-5.63302384685E+01	-8.52748684246E+01	-9.75496959402E+00	-1.27432262092E+01	-9.74994144251E+00	-1.27607131235E+01	-4.50052854037E+01	6.98603603989E+01
4.40945000000E+08	-5.59954640281E+01	-8.37816198698E+01	-9.75482301665E+00	-1.29709636784E+01	-9.75029135170E+00	-1.29991386731E+01	-4.48804671479E+01	6.95744165003E+01
4.48944000000E+08	-5.59628939193E+01	-8.25852111434E+01	-9.75494936934E+00	-1.32069767508E+01	-9.75168459759E+00	-1.32356745651E+01	-4.47815955655E+01	6.94025037997E+01
4.56943000000E+08	-5.59414760449E+01	-8.31465514479E+01	-9.75541492160E+00	-1.34424669237E+01	-9.75003023891E+00	-1.34682102005E+01	-4.46535031456E+01	6.92321688132E+01
4.64942000000E+08	-5.55518647186E+01	-8.23426602533E+01	-9.75470333984E+00	-1.36830275586E+01	-9.75226564228E+00	-1.37000405077E+01	-4.45164694016E+01	6.90846977846E+01
4.72941000000E+08	-5.53941824926E+01	-8.20697312397E+01	-9.75728291887E+00	-1.39105205287E+01	-9.75222696846E+00	-1.39397119348E+01	-4.44190258709E+01	6.88571832363E+01
4.80940000000E+08	-5.53891910842E+01	-8.14884587585E+01	-9.75745440663E+00	-1.41513779642E+01	-9.75077123577E+00	-1.41741218230E+01	-4.42770645345E+01	6.90618853798E+01
4.88939000000E+08	-5.53104971183E+01	-8.18053661592E+01	-9.75813901373E+00	-1.43818957169E+01	-9.75408613644E+00	-1.44016481512E+01	-4.41844903324E+01	6.90559856029E+01
4.96938000000E+08	-5.51276824236E+01	-8.22762424444E+01	-9.75911480568E+00	-1.46125298011E+01	-9.75309370174E+00	-1.46404895389E+01	-4.40230407988E+01	6.89069906003E+01
5.04937000000E+08	-5.50824731712E+01	-8.33455412125E+01	-9.75957402998E+00	-1.48464433269E+01	-9.75432381976E+00	-1.48708918535E+01	-4.39346111707E+01	6.92980484955E+01
5.12936000000E+08	-5.50588040499E+01	-8.35070338709E+01	-9.75962531460E+00	-1.50756638097E+01	-9.75508333496E+00	-1.51071665349E+01	-4.37943346526E+01	6.90995568692E+01
5.20935000000E+08	-5.47488865395E+01	-8.45035076071E+01	-9.76047390850E+00	-1.52940047640E+01	-9.75533961143E+00	-1.53184207409E+01	-4.36793827717E+01	6.95079312673E+01
5.28934000000E+08	-5.46500455674E+01	-8.37906607266E+01	-9.75929549522E+00	-1.55263525478E+01	-9.75484083227E+00	-1.55564250027E+01	-4.35904560804E+01	6.94097804536E+01
5.36933000000E+08	-5.45163400854E+01	-8.42678981612E+01	-9.75963015639E+00	-1.57609495311E+01	-9.75462455545E+00	-1.57946765915E+01	-4.34691928714E+01	6.97859388605E+01
5.44932000000E+08	-5.43629712487E+01	-8.47243899606E+01	-9.75798057126E+00	-1.59823762357E+01	-9.75395070062E+00	-1.60178403561E+01	-4.33993063020E+01	6.99351470001E+01
5.52931000000E+08	-5.40185409608E+01	-8.46287680920E+01	-9.75801607865E+00	-1.62234527213E+01	-9.75484763667E+00	-1.62467383034E+01	-4.33011150898E+01	7.00115425567E+01
5.60930000000E+08	-5.37505671219E+01	-8.45295377829E+01	-9.75731099772E+00	-1.64623662354E+01	-9.75416480533E+00	-1.64889757653E+01	-4.31869943883E+01	7.01470746740E+01
5.68929000000E+08	-5.36843741689E+01	-8.54031792846E+01	-9.75646274918E+00	-1.66984464160E+01	-9.75386764886E+00	-1.67296653430E+01	-4.31375418887E+01	6.99861215765E+01
5.76928000000E+08	-5.33401354351E+01	-8.48831850247E+01	-9.75792450459E+00	-1.69466679544E+01	-9.75364416359E+00	-1.69692376870E+01	-4.30441269585E+01	7.00976311305E+01
5.84927000000E+08	-5.31882997597E+01	-8.44745227637E+01	-9.76040700382E+00	-1.71788720319E+01	-9.75473596098E+00	-1.72032089819E+01	-4.29722290449E+01	7.04226649203E+01
5.92926000000E+08	-5.30682051283E+01	-8.42523809170E+01	-9.76113984570E+00	-1.74155988359E+01	-9.75605415144E+00	-1.74388891370E+01	-4.29473686952E+01	7.04359550021E+01
6.00925000000E+08	-5.29234269976E+01	-8.36072961102E+01	-9.76210628057E+00	-1.76470463997E+01	-9.75572596724E+00	-1.76736472440E+01	-4.28545392473E+01	7.01187325284E+01
6.08924000000E+08	-5.27258073981E+01	-8.37319642947E+01	-9.76259921579E+00	-1.78736087512E+01	-9.75684025343E+00	-1.79076905851E+01	-4.27508547799E+01	7.01318085948E+01
6.16923000000E+08	-5.27021183424E+01	-8.29342778062E+01	-9.76405495113E+00	-1.80989513137E+01	-9.75752159955E+00	-1.81408887963E+01	-4.27007290261E+01	7.01466919230E+01
6.24922000000E+08	-5.26095392605E+01	-8.26509087264E+01	-9.76356163551E+00	-1.83307988117E+01	-9.75841754250E+00	-1.83631895662E+01	-4.26093144877E+01	7.00473487408E+01
6.32921000000E+08	-5.25425949424E+01	-8.22744618437E+01	-9.76424480973E+00	-1.85656430527E+01	-9.75938654760E+00	-1.85866059720E+01	-4.25409964923E+01	6.99518023333E+01
6.40920000000E+08	-5.23407553005E+01	-8.19624607174E+01	-9.76326822619E+00	-1.87833988673E+01	-9.75788166568E+00	-1.88304126324E+01	-4.24061265206E+01	6.98051000017E+01
6.48919000000E+08	-5.23011017817E+01	-8.25698653750E+01	-9.76376192580E+00	-1.90200460648E+01	-9.75857483467E+00	-1.90557378834E+01	-4.23368364677E+01	6.97593346676E+01
6.56918000000E+08	-5.22841835383E+01	-8.27862953633E+01	-9.76327073665E+00	-1.92506637220E+01	-9.75839177173E+00	-1.92823574798E+01	-4.22136522425E+01	6.95982663393E+01
6.64917000000E+08	-5.21137743508E+01	-8.26668662334E+01	-9.76212583911E+00	-1.94805920228E+01	-9.75766550448E+00	-1.95158481829E+01	-4.21074996336E+01	6.96236788672E+01
6.72916000000E+08	-5.20522951057E+01	-8.35423256966E+01	-9.76185574602E+00	-1.97201787149E+01	-9.75856495418E+00	-1.97495301585E+01	-4.20056019718E+01	7.00480321196E+01
6.80915000000E+08	-5.19736796907E+01	-8.37475741929E+01	-9.76325425559E+00	-1.99591426275E+01	-9.75795669671E+00	-1.99925526467E+01	-4.19377188217E+01	6.99023384904E+01
6.88914000000E+08	-5.19184308440E+01	-8.38625994381E+01	-9.76355134995E+00	-2.01910594266E+01	-9.75874064137E+00	-2.02332018084E+01	-4.18276649373E+01	6.97986974867E+01
6.96913000000E+08	-5.17410969462E+01	-8.44271568664E+01	-9.76259034230E+00	-2.04217322934E+01	-9.75909944181E+00	-2.04580646271E+01	-4.17303292646E+01	6.99606118157E+01
7.04912000000E+08	-5.16449025579E+01	-8.42591244446E+01	-9.76302171925E+00	-2.06643076768E+01	-9.75988206342E+00	-2.06924495105E+01	-4.16624285606E+01	7.01242162374E+01
7.12911000000E+08	-5.14714218284E+01	-8.45389149874E+01	-9.76495556465E+00	-2.08874186272E+01	-9.76063212919E+00	-2.09124503945E+01	-4.15695617647E+01	7.01545654909E+01
7.20910000000E+08	-5.13357627354E+01	-8.48932025247E+01	-9.76630149433E+00	-2.11208854945E+01	-9.76057216726E+00	-2.11475309260E+01	-4.14904211940E+01	7.01178971165E+01
7.28909000000E+08	-5.11515191136E+01	-8.45319559713E+01	-9.76634606491E+00	-2.13466790043E+01	-9.76141435913E+00	-2.13763451844E+01	-4.14430199410E+01	7.04109483359E+01
7.36908000000E+08	-5.10044303271E+01	-8.46354711788E+01	-9.76575534205E+00	-2.15715575948E+01	-9.76171088321E+00	-2.16147646191E+01	-4.13803015433E+01	7.03661717022E+01
7.44907000000E+08	-5.09482070728E+01	-8.42438239828E+01	-9.76487532893E+00	-2.18051784214E+01	-9.76127554855E+00	-2.18364287359E+01	-4.12985139437E+01	7.04648090730E+01
7.52906000000E+08	-5.07988999584E+01	-8.47001977644E+01	-9.76465374691E+00	-2.20449875248E+01	-9.75936468014E+00	-2.20640792328E+01	-4.12220932503E+01	7.05827812390E+01
7.60905000000E+08	-5.06082672445E+01	-8.39670493970E+01	-9.76464091526E+00	-2.22662646555E+01	-9.75983125991E+00	-2.23041388377E+01	-4.11741858001E+01	7.06582308011E+01
7.68904000000E+08	-5.05095021458E+01	-8.34118448922E+01	-9.76229248511E+00	-2.24936775727E+01	-9.75776333204E+00	-2.25432181416E+01	-4.11010564896E+01	7.08446675245E+01
7.76903000000E+08	-5.03598879814E+01	-8.38746271461E+01	-9.76442488453E+00	-2.27534169888E+01	-9.75961058839E+00	-2.27785025987E+01	-4.09964176092E+01	7.07317477117E+01
7.84902000000E+08	-5.01372483453E+01	-8.35940438216E+01	-9.76261829697E+00	-2.29880510574E+01	-9.75857168283E+00	-2.30149508939E+01	-4.09503589889E+01	7.07593131193E+01
7.92901000000E+08	-5.01546301488E+01	-8.33121030433E+01	-9.76404306455E+00	-2.32278878399E+01	-9.75938522276E+00	-2.32546370643E+01	-4.08871705090E+01	7.08594178161E+01
8.00900000000E+08	-5.00560145997E+01	-8.30629515038E+01	-9.76619882263E+00	-2.34740208135E+01	-9.76090384297E+00	-2.34900704645E+01	-4.07977346307E+01	7.07045173719E+01
8.08899000000E+08	-5.00712205217E+01	-8.26346392919E+01	-9.76619943214E+00	-2.37035117241E+01	-9.76185747008E+00	-2.37292597836E+01	-4.07335893466E+01	7.07177146512E+01
8.16898000000E+08	-4.99807422940E+01	-8.24985181665E+01	-9.76882402056E+00	-2.39306581737E+01	-9.76401833450E+00	-2.39582298250E+01	-4.06730792948E+01	7.08190275406E+01
8.24897000000E+08	-4.99176098574E+01	-8.22041852840E+01	-9.76965136378E+00	-2.41599964876E+01	-9.76449011178E+00	-2.41862405124E+01	-4.05809541225E+01	7.06681879255E+01
8.32896000000E+08	-4.98009274272E+01	-8.22639326105E+01	-9.77138293879E+00	-2.43827725721E+01	-9.76436125760E+00	-2.44118483569E+01	-4.05031371376E+01	7.07275069461E+01
8.40895000000E+08	-4.97385049675E+01	-8.22135702542E+01	-9.77038717863E+00	-2.46118369400E+01	-9.76545540583E+00	-2.46330765535E+01	-4.04365886355E+01	7.07013794020E+01
8.48894000000E+08	-4.96852675667E+01	-8.27426205963E+01	-9.76958858236E+00	-2.48268848461E+01	-9.76452908621E+00	-2.48674739559E+01	-4.03822647746E+01	7.08335062077E+01
8.56893000000E+08	-4.96223571830E+01	-8.26339958705E+01	-9.77065350456E+00	-2.50509094220E+01	-9.76421689797E+00	-2.50936422865E+01	-4.03078845861E+01	7.07861747682E+01
8.64892000000E+08	-4.95397756305E+01	-8.23446797006E+01	-9.76798337335E+00	-2.52832705500E+01	-9.76346792752E+00	-2.53213024210E+01	-4.02383485108E+01	7.09632474966E+01
8.72891000000E+08	-4.93776806663E+01	-8.27931364163E+01	-9.76682685468E+00	-2.55117990782E+01	-9.76209366402E+00	-2.55597142593E+01	-4.01928317969E+01	7.07837284103E+01
8.80890000000E+08	-4.93133558172E+01	-8.26454169245E+01	-9.76615331000E+00	-2.57494627461E+01	-9.76093122305E+00	-2.57917755161E+01	-4.01346297352E+01	7.09641801942E+01
8.88889000000E+08	-4.92571271117E+01	-8.23952199240E+01	-9.76530805417E+00	-2.59817811770E+01	-9.76128870796E+00	-2.60317562071E+01	-4.00606532012E+01	7.09255295615E+01
8.96888000000E+08	-4.91593001278E+01	-8.22212463342E+01	-9.76516289259E+00	-2.62354750677E+01	-9.76028656263E+00	-2.62669350797E+01	-3.99824369282E+01	7.09592295369E+01
9.04887000000E+08	-4.90812987148E+01	-8.26539724973E+01	-9.76612034170E+00	-2.64642841674E+01	-9.76181273109E+00	-2.65029700058E+01	-3.99385899427E+01	7.08860137619E+01
9.12886000000E+08	-4.89693429229E+01	-8.23230893604E+01	-9.76703015323E+00	-2.66976002921E+01	-9.76225699264E+00	-2.67473915160E+01	-3.98561287379E+01	7.08558752219E+01
9.20885000000E+08	-4.89373588998E+01	-8.23769860059E+01	-9.76681067421E+00	-2.69452048130E+01	-9.76299755665E+00	-2.69797373070E+01	-3.98027151267E+01	7.08190195483E+01
9.28884000000E+08	-4.88299951480E+01	-8.23310447510E+01	-9.76706136453E+00	-2.71833337958E+01	-9.76323103958E+00	-2.72128764565E+01	-3.97321798907E+01	7.08392747665E+01
9.36883000000E+08	-4.87613256122E+01	-8.19420121710E+01	-9.76858955978E+00	-2.74167311068E+01	-9.76428697365E+00	-2.74432810950E+01	-3.96571468895E+01	7.08260549734E+01
9.44882000000E+08	-4.87150523421E+01	-8.20485860406E+01	-9.77013631088E+00	-2.76335422428E+01	-9.76544448996E+00	-2.76837446424E+01	-3.96087578701E+01	7.08335044179E+01
9.52881000000E+08	-4.86700504196E+01	-8.15293706654E+01	-9.77100924066E+00	-2.78640445024E+01	-9.76645731414E+00	-2.79026419145E+01	-3.95466225414E+01	7.09221791581E+01
9.60880000000E+08	-4.85953960723E+01	-8.19230150011E+01	-9.77098556079E+00	-2.80940708065E+01	-9.76616861743E+00	-2.81315255610E+01	-3.94644051315E+01	7.09056312559E+01
9.68879000000E+08	-4.85100671910E+01	-8.18667008289E+01	-9.77028399745E+00	-2.83239785804E+01	-9.76492318174E+00	-2.83530128687E+01	-3.93840414979E+01	7.10304813684E+01
9.76878000000E+08	-4.84532451867E+01	-8.25559187503E+01	-9.77040748445E+00	-2.85545723313E+01	-9.76517016981E+00	-2.85939855726E+01	-3.93153163112E+01	7.09464667740E+01
9.84877000000E+08	-4.83697944830E+01	-8.22547514228E+01	-9.77020467307E+00	-2.87782848029E+01	-9.76490289285E+00	-2.88178500093E+01	-3.92614928443E+01	7.11579757219E+01
9.92876000000E+08	-4.83170572197E+01	-8.25809521444E+01	-9.77041526086E+00	-2.90140747331E+01	-9.76448893566E+00	-2.90628813228E+01	-3.92148068555E+01	7.13230191687E+01
1.00087500000E+09	-4.82435780753E+01	-8.23283965289E+01	-9.77031648880E+00	-2.92543123489E+01	-9.76452857213E+00	-2.92974981558E+01	-3.91573037245E+01	7.11349340183E+01
1.00887400000E+09	-4.82328534140E+01	-8.25780223531E+01	-9.77021774915E+00	-2.94888569866E+01	-9.76585138920E+00	-2.95319386712E+01	-3.90877789591E+01	7.14579806916E+01
1.01687300000E+09	-4.81382731697E+01	-8.26611368506E+01	-9.77108818638E+00	-2.97212308004E+01	-9.76478420303E+00	-2.97647373897E+01	-3.90288148720E+01	7.15236421956E+01
1.02487200000E+09	-4.80348816054E+01	-8.32013564601E+01	-9.77110343167E+00	-2.99572112793E+01	-9.76597732033E+00	-2.99961640945E+01	-3.89827703036E+01	7.14065575426E+01
1.03287100000E+09	-4.79275918685E+01	-8.29259952162E+01	-9.77269885193E+00	-3.01903969012E+01	-9.76629724091E+00	-3.02246435622E+01	-3.89453959859E+01	7.14592736254E+01
1.04087000000E+09	-4.77959713640E+01	-8.28523723474E+01	-9.77265533757E+00	-3.04115456327E+01	-9.76755562588E+00	-3.04511649716E+01	-3.88902760425E+01	7.14195090540E+01
1.04886900000E+09	-4.76788924158E+01	-8.29746721049E+01	-9.77315467130E+00	-3.06415237932E+01	-9.76660708607E+00	-3.06790285536E+01	-3.88658570114E+01	7.15403752794E+01
1.05686800000E+09	-4.76120482659E+01	-8.27436617873E+01	-9.77301571828E+00	-3.08690001037E+01	-9.76728281265E+00	-3.09079504917E+01	-3.88433498290E+01	7.14610805524E+01
1.06486700000E+09	-4.75148594979E+01	-8.28296142002E+01	-9.77175320720E+00	-3.10873002441E+01	-9.76705867716E+00	-3.11287171830E+01	-3.87921955475E+01	7.15585512848E+01
1.07286600000E+09	-4.74144979483E+01	-8.23011740945E+01	-9.77192272310E+00	-3.13144843851E+01	-9.76619770519E+00	-3.13603445857E+01	-3.87391370659E+01	7.13071056100E+01
1.08086500000E+09	-4.73369142408E+01	-8.25820803222E+01	-9.77095617887E+00	-3.15435258366E+01	-9.76466364267E+00	-3.15976570158E+01	-3.87157507771E+01	7.11958182561E+01
1.08886400000E+09	-4.72648488242E+01	-8.20265024797E+01	-9.76892688941E+00	-3.17787650905E+01	-9.76533977072E+00	-3.18280057212E+01	-3.86423477277E+01	7.12729987857E+01
1.09686300000E+09	-4.72663638058E+01	-8.19174736745E+01	-9.76816555992E+00	-3.20237701178E+01	-9.76444498446E+00	-3.20757908824E+01	-3.86018962842E+01	7.10757469925E+01
1.10486200000E+09	-4.70840549770E+01	-8.18638407812E+01	-9.76832300174E+00	-3.22723421754E+01	-9.76400854310E+00	-3.23128941993E+01	-3.85032216850E+01	7.09863650070E+01
1.11286100000E+09	-4.70954150468E+01	-8.18839482998E+01	-9.76907175658E+00	-3.25055587347E+01	-9.76457962794E+00	-3.25554463951E+01	-3.84692163406E+01	7.06688958809E+01
1.12086000000E+09	-4.70112238930E+01	-8.16342558111E+01	-9.77021911403E+00	-3.27550749878E+01	-9.76658442657E+00	-3.27931791582E+01	-3.83910471436E+01	7.08204209035E+01
1.12885900000E+09	-4.70012799888E+01	-8.17006942147E+01	-9.77156002688E+00	-3.29978420488E+01	-9.76708610881E+00	-3.30324838601E+01	-3.83469717280E+01	7.06382120991E+01
1.13685800000E+09	-4.69915973909E+01	-8.17849612416E+01	-9.77359880863E+00	-3.32198036232E+01	-9.76763911048E+00	-3.32634811062E+01	-3.82627855838E+01	7.07125437980E+01
1.14485700000E+09	-4.68993157729E+01	-8.15736986774E+01	-9.77502052060E+00	-3.34646014851E+01	-9.76957356617E+00	-3.34829312407E+01	-3.82115686839E+01	7.06202697546E+01
1.15285600000E+09	-4.68504110542E+01	-8.16587743834E+01	-9.77653584759E+00	-3.36836427470E+01	-9.77006166918E+00	-3.37273942310E+01	-3.81321868718E+01	7.06240478941E+01
1.16085500000E+09	-4.68010736685E+01	-8.15957348811E+01	-9.77792977918E+00	-3.39137786856E+01	-9.77054355883E+00	-3.39506898192E+01	-3.80815522725E+01	7.05482029239E+01
1.16885400000E+09	-4.66984082107E+01	-8.13247844264E+01	-9.77797402359E+00	-3.41284138642E+01	-9.77129878987E+00	-3.41682659061E+01	-3.80141328949E+01	7.07417894677E+01
1.17685300000E+09	-4.66181075911E+01	-8.14188018541E+01	-9.77787419145E+00	-3.43499655111E+01	-9.77063761628E+00	-3.43924640437E+01	-3.79485427754E+01	7.07800012842E+01
1.18485200000E+09	-4.65070993209E+01	-8.14346346400E+01	-9.77586084745E+00	-3.45664462220E+01	-9.77045394726E+00	-3.46206245236E+01	-3.79207568743E+01	7.09156660983E+01
1.19285100000E+09	-4.64765909250E+01	-8.14724841990E+01	-9.77496593546E+00	-3.48025601625E+01	-9.76891526241E+00	-3.48568844427E+01	-3.78565626873E+01	7.09391016339E+01
1.20085000000E+09	-4.63866474185E+01	-8.15988442871E+01	-9.77224858270E+00	-3.50369743571E+01	-9.76863473424E+00	-3.50827735657E+01	-3.78119886930E+01	7.09906234586E+01
1.20884900000E+09	-4.62923053328E+01	-8.12697587602E+01	-9.77102923283E+00	-3.52739689388E+01	-9.76613338387E+00	-3.53227485388E+01	-3.77397709158E+01	7.09224460426E+01
1.21684800000E+09	-4.62020623814E+01	-8.11815013118E+01	-9.77082119484E+00	-3.55117649775E+01	-9.76519100446E+00	-3.55647230413E+01	-3.77241236919E+01	7.10663819223E+01
1.22484700000E+09	-4.61465369510E+01	-8.08055930930E+01	-9.76913862158E+00	-3.57633249808E+01	-9.76637268921E+00	-3.58052614602E+01	-3.76811589948E+01	7.08962069980E+01
1.23284600000E+09	-4.60981384886E+01	-8.08401473209E+01	-9.77034655635E+00	-3.60006775754E+01	-9.76642875612E+00	-3.60469030814E+01	-3.76555167174E+01	7.08803727641E+01
1.24084500000E+09	-4.59889527689E+01	-8.03485936595E+01	-9.77234092472E+00	-3.62495466908E+01	-9.76724564197E+00	-3.62834958891E+01	-3.76215077722E+01	7.07970318728E+01
1.24884400000E+09	-4.59424357153E+01	-8.03012086638E+01	-9.77401208651E+00	-3.64807453287E+01	-9.76918494643E+00	-3.65224797790E+01	-3.75802510666E+01	7.06535119408E+01
1.25684300000E+09	-4.59543468320E+01	-8.00726103563E+01	-9.77423976163E+00	-3.67184016250E+01	-9.76901346863E+00	-3.67476727666E+01	-3.75345925461E+01	7.06035154381E+01
1.26484200000E+09	-4.58916601455E+01	-7.95138606175E+01	-9.77656475358E+00	-3.69499187882E+01	-9.77121055268E+00	-3.69852511369E+01	-3.74828127914E+01	7.03919324518E+01
1.27284100000E+09	-4.58679495463E+01	-7.95352584483E+01	-9.77880000358E+00	-3.71675802947E+01	-9.77210140721E+00	-3.71955172733E+01	-3.74254851767E+01	7.04946447129E+01
1.28084000000E+09	-4.58408032486E+01	-7.92029652769E+01	-9.77797413555E+00	-3.73963038158E+01	-9.77147969972E+00	-3.74301120529E+01	-3.73727444865E+01	7.03200135139E+01
1.28883900000E+09	-4.58542460194E+01	-7.88911827971E+01	-9.77697332565E+00	-3.76226203536E+01	-9.77167206509E+00	-3.76604153953E+01	-3.73188024959E+01	7.02225159362E+01
1.29683800000E+09	-4.58294982254E+01	-7.92299771827E+01	-9.77742832097E+00	-3.78505418831E+01	-9.77028382737E+00	-3.78887630356E+01	-3.72559576462E+01	7.01486348284E+01
1.30483700000E+09	-4.57501158641E+01	-7.94067378611E+01	-9.77663573610E+00	-3.80810030336E+01	-9.77055301396E+00	-3.81169640662E+01	-3.71964004545E+01	6.99856573885E+01
1.31283600000E+09	-4.57706251927E+01	-7.93423421916E+01	-9.77587169786E+00	-3.83178352341E+01	-9.76928266017E+00	-3.83554733414E+01	-3.71207667048E+01	6.99403468084E+01
1.32083500000E+09	-4.57986545452E+01	-7.92983836263E+01	-9.77288144361E+00	-3.85537291289E+01	-9.76862774767E+00	-3.85897309870E+01	-3.70458602262E+01	6.99436766085E+01
1.32883400000E+09	-4.57232796808E+01	-7.92412904127E+01	-9.77279170142E+00	-3.87972879427E+01	-9.76867916206E+00	-3.88305889461E+01	-3.70045924334E+01	6.98682330648E+01
1.33683300000E+09	-4.56897240388E+01	-7.95877848749E+01	-9.77492308137E+00	-3.90447619876E+01	-9.76957220459E+00	-3.90746624808E+01	-3.69427618876E+01	7.00228377620E+01
1.34483200000E+09	-4.56626910754E+01	-7.97748015776E+01	-9.77523460095E+00	-3.92796505507E+01	-9.77115085474E+00	-3.93057630466E+01	-3.68783244702E+01	6.99772395930E+01
1.35283100000E+09	-4.56087418229E+01	-8.01389605864E+01	-9.77694686545E+00	-3.95172180209E+01	-9.77188600547E+00	-3.95435851812E+01	-3.68223761717E+01	7.00976429953E+01
1.36083000000E+09	-4.55020389135E+01	-7.99593632460E+01	-9.77935137592E+00	-3.97423055765E+01	-9.77279873332E+00	-3.97726233141E+01	-3.68020740994E+01	7.00928280198E+01
1.36882900000E+09	-4.54454704549E+01	-8.02311338115E+01	-9.78077291603E+00	-3.99714627306E+01	-9.77381473707E+00	-3.99989882486E+01	-3.67320656529E+01	7.01742622302E+01
1.37682800000E+09	-4.53586630130E+01	-8.00291342164E+01	-9.78084697741E+00	-4.01926283083E+01	-9.77507862081E+00	-4.02283236297E+01	-3.66952046623E+01	7.02443613553E+01
1.38482700000E+09	-4.52861583868E+01	-8.04386924376E+01	-9.78147572065E+00	-4.04203171307E+01	-9.77523000436E+00	-4.04496605156E+01	-3.66657702370E+01	7.03276251725E+01
1.39282600000E+09	-4.51990192748E+01	-8.01531925084E+01	-9.78017748471E+00	-4.06309645083E+01	-9.77332612928E+00	-4.06705388016E+01	-3.66174496182E+01	7.02408673471E+01
1.40082500000E+09	-4.51121901959E+01	-8.02798382020E+01	-9.77927491375E+00	-4.08544243067E+01	-9.77198276471E+00	-4.08963197837E+01	-3.65879282403E+01	7.02916688052E+01
1.40882400000E+09	-4.50329178694E+01	-7.99162035528E+01	-9.77695967111E+00	-4.10893185445E+01	-9.77145420802E+00	-4.11313450014E+01	-3.65738677402E+01	7.04559247643E+01
1.41682300000E+09	-4.49763997495E+01	-8.00442773041E+01	-9.77528853689E+00	-4.13306748311E+01	-9.77012746229E+00	-4.13628288071E+01	-3.65329892251E+01	7.02218477461E+01
1.42482200000E+09	-4.49587330584E+01	-7.99628294450E+01	-9.77346927253E+00	-4.15662254635E+01	-9.76783472834E+00	-4.16139117021E+01	-3.64884612328E+01	7.01099487953E+01
1.43282100000E+09	-4.48644529180E+01	-7.99264695205E+01	-9.77277535280E+00	-4.18155811390E+01	-9.76790049420E+00	-4.18528855455E+01	-3.64650658428E+01	6.99840791935E+01
1.44082000000E+09	-4.48549694210E+01	-7.97111819666E+01	-9.77191553257E+00	-4.20623152744E+01	-9.76750056220E+00	-4.21052577436E+01	-3.64207299338E+01	6.99629981888E+01
1.44881900000E+09	-4.48226656859E+01	-7.94941711448E+01	-9.77350339096E+00	-4.23104333356E+01	-9.76882993507E+00	-4.23475591303E+01	-3.63779471341E+01	6.98261535026E+01
1.45681800000E+09	-4.47911093478E+01	-7.93226159341E+01	-9.77424619894E+00	-4.25527638893E+01	-9.77113783054E+00	-4.25845715622E+01	-3.63380445551E+01	6.96409451991E+01
1.46481700000E+09	-4.47879861338E+01	-7.91973698909E+01	-9.77704825438E+00	-4.27858534479E+01	-9.77249057167E+00	-4.28203620102E+01	-3.62904927906E+01	6.95804070595E+01
1.47281600000E+09	-4.47540282496E+01	-7.93597616105E+01	-9.78068228925E+00	-4.30260700327E+01	-9.77421911336E+00	-4.30516922860E+01	-3.62237152930E+01	6.94463241980E+01
1.48081500000E+09	-4.46940929942E+01	-7.87057335997E+01	-9.78158849022E+00	-4.32454473232E+01	-9.77558947586E+00	-4.32802897796E+01	-3.61793185527E+01	6.93143398230E+01
1.48881400000E+09	-4.46255354550E+01	-7.91214336940E+01	-9.78402374403E+00	-4.34656378280E+01	-9.77713937917E+00	-4.34975233221E+01	-3.61288077179E+01	6.92569134533E+01
1.49681300000E+09	-4.46119059444E+01	-7.91462823992E+01	-9.78518485581E+00	-4.36936317368E+01	-9.77821269375E+00	-4.37203409903E+01	-3.60701143585E+01	6.91452576908E+01
1.50481200000E+09	-4.45715574839E+01	-7.89667200598E+01	-9.78395072447E+00	-4.39086886933E+01	-9.77733498868E+00	-4.39417247738E+01	-3.60054799748E+01	6.91305069082E+01
1.51281100000E+09	-4.45249854057E+01	-7.92735811998E+01	-9.78273086647E+00	-4.41199576395E+01	-9.77555200409E+00	-4.41615832243E+01	-3.59575742312E+01	6.91666517158E+01
1.52081000000E+09	-4.44754207589E+01	-7.93498698040E+01	-9.78069348865E+00	-4.43542191842E+01	-9.77490057362E+00	-4.43965859124E+01	-3.58888617758E+01	6.92061964858E+01
1.52880900000E+09	-4.44487794953E+01	-7.91852685538E+01	-9.77951112391E+00	-4.45835517339E+01	-9.77376354886E+00	-4.46283344152E+01	-3.58450020193E+01	6.91826651415E+01
1.53680800000E+09	-4.43700058447E+01	-7.92388744881E+01	-9.77735128163E+00	-4.48169319804E+01	-9.77186551339E+00	-4.48627977944E+01	-3.58142286358E+01	6.93504511673E+01
1.54480700000E+09	-4.43296985527E+01	-7.92932498985E+01	-9.77473375352E+00	-4.50570237617E+01	-9.77118702525E+00	-4.51023977831E+01	-3.57590512067E+01	6.92353278676E+01
1.55280600000E+09	-4.43152882672E+01	-7.93167217866E+01	-9.77469013231E+00	-4.53096278553E+01	-9.77125639890E+00	-4.53526589007E+01	-3.57348570280E+01	6.92674796900E+01
1.56080500000E+09	-4.42426665540E+01	-7.91146097444E+01	-9.77482091954E+00	-4.55499317922E+01	-9.77214881753E+00	-4.55866520818E+01	-3.57016434586E+01	6.91626929264E+01
1.56880400000E+09	-4.41435127502E+01	-7.93804215199E+01	-9.77569822000E+00	-4.57932757362E+01	-9.77314760138E+00	-4.58295281499E+01	-3.56638201284E+01	6.92932483246E+01
1.57680300000E+09	-4.41247121977E+01	-7.91875546445E+01	-9.77706573069E+00	-4.60320814890E+01	-9.77442264632E+00	-4.60530762834E+01	-3.56389258955E+01	6.91589866818E+01
1.58480200000E+09	-4.41128027168E+01	-7.90211110104E+01	-9.77981478120E+00	-4.62698727518E+01	-9.77494158639E+00	-4.62844906147E+01	-3.56066092524E+01	6.92458946272E+01
1.59280100000E+09	-4.40545389148E+01	-7.94031058438E+01	-9.78089112163E+00	-4.64954853302E+01	-9.77628169258E+00	-4.65067627032E+01	-3.55731182997E+01	6.90619507277E+01
1.60080000000E+09	-4.40025140757E+01	-7.91438338577E+01	-9.78108291959E+00	-4.67187855807E+01	-9.77657332646E+00	-4.67405219960E+01	-3.55343015631E+01	6.89508867740E+01
1.60879900000E+09	-4.39538305974E+01	-7.92724286940E+01	-9.78195412054E+00	-4.69325174924E+01	-9.77578250971E+00	-4.69603545263E+01	-3.55138391741E+01	6.89163119488E+01
1.61679800000E+09	-4.38793860364E+01	-7.91073397174E+01	-9.78174009601E+00	-4.71605478186E+01	-9.77401937850E+00	-4.71865747411E+01	-3.54697431024E+01	6.87635310068E+01
1.62479700000E+09	-4.38161262968E+01	-7.92948704208E+01	-9.78014783666E+00	-4.73945291362E+01	-9.77297361074E+00	-4.74151054331E+01	-3.54406191949E+01	6.87465441932E+01
1.63279600000E+09	-4.37922918087E+01	-7.92610112905E+01	-9.77914653853E+00	-4.76184033923E+01	-9.77156985399E+00	-4.76538890255E+01	-3.54103447049E+01	6.84514323642E+01
1.64079500000E+09	-4.37874827575E+01	-7.92792861408E+01	-9.77830335182E+00	-4.78606641528E+01	-9.76948684777E+00	-4.78918084661E+01	-3.53480183089E+01	6.83568343844E+01
1.64879400000E+09	-4.37173879376E+01	-7.87358582422E+01	-9.77657969534E+00	-4.80958327138E+01	-9.77016590903E+00	-4.81418100760E+01	-3.53068914122E+01	6.82624833203E+01
1.65679300000E+09	-4.37002291068E+01	-7.91858428795E+01	-9.77536972461E+00	-4.83474109323E+01	-9.77123716169E+00	-4.83830816257E+01	-3.52645348319E+01	6.81324064762E+01
1.66479200000E+09	-4.36455757725E+01	-7.90974130838E+01	-9.77778216646E+00	-4.85911009263E+01	-9.77189588510E+00	-4.86366766482E+01	-3.52113607423E+01	6.80172492685E+01
1.67279100000E+09	-4.36087636495E+01	-7.91113246438E+01	-9.78005170349E+00	-4.88279898852E+01	-9.77371406733E+00	-4.88752557926E+01	-3.51545243299E+01	6.80553686610E+01
1.68079000000E+09	-4.35639257453E+01	-7.91411139988E+01	-9.78076629605E+00	-4.90674012016E+01	-9.77667950754E+00	-4.91118678689E+01	-3.51172201316E+01	6.78883514374E+01
1.68878900000E+09	-4.34636216008E+01	-7.88972624001E+01	-9.78271301615E+00	-4.92911286162E+01	-9.77912674098E+00	-4.93309108334E+01	-3.50705024105E+01	6.78343069500E+01
1.69678800000E+09	-4.34343605848E+01	-7.87851281900E+01	-9.78447645910E+00	-4.95238497996E+01	-9.77968724964E+00	-4.95618169194E+01	-3.50215660980E+01	6.77890751631E+01
1.70478700000E+09	-4.33986748761E+01	-7.87954806799E+01	-9.78601596646E+00	-4.97495296347E+01	-9.78079930621E+00	-4.97702693798E+01	-3.49734828884E+01	6.77762951036E+01
1.71278600000E+09	-4.33147977762E+01	-7.86976284268E+01	-9.78520151756E+00	-4.99618041997E+01	-9.78034354761E+00	-4.99928552639E+01	-3.49405663825E+01	6.77058467970E+01
1.72078500000E+09	-4.32617582894E+01	-7.85656675972E+01	-9.78534643199E+00	-5.01769840721E+01	-9.77791890179E+00	-5.02145866249E+01	-3.48972520602E+01	6.77820548614E+01
1.72878400000E+09	-4.32407655664E+01	-7.85890398712E+01	-9.78377922531E+00	-5.03965850553E+01	-9.77700244405E+00	-5.04362216252E+01	-3.48507302508E+01	6.75865899208E+01
1.73678300000E+09	-4.31814342460E+01	-7.84817320246E+01	-9.78063463981E+00	-5.06286358550E+01	-9.77448209245E+00	-5.06693007143E+01	-3.48187301289E+01	6.76486648241E+01
1.74478200000E+09	-4.31713668952E+01	-7.82004230553E+01	-9.77936649231E+00	-5.08577627225E+01	-9.77118063115E+00	-5.09007788399E+01	-3.47960029582E+01	6.76486517019E+01
1.75278100000E+09	-4.30871676195E+01	-7.81311140371E+01	-9.77692961849E+00	-5.11100546561E+01	-9.76870286071E+00	-5.11511926647E+01	-3.47570875737E+01	6.75690570145E+01
1.76078000000E+09	-4.30499663514E+01	-7.81639889308E+01	-9.77413221929E+00	-5.13582614624E+01	-9.76930756878E+00	-5.14052218895E+01	-3.47172455239E+01	6.74179932292E+01
1.76877900000E+09	-4.30542084237E+01	-7.82544007033E+01	-9.77443102486E+00	-5.16030515369E+01	-9.76790122020E+00	-5.16443948875E+01	-3.46945174393E+01	6.73259295382E+01
1.77677800000E+09	-4.29967002163E+01	-7.79779104085E+01	-9.77486467232E+00	-5.18528808284E+01	-9.77001654568E+00	-5.19026968800E+01	-3.46500488462E+01	6.72402006105E+01
1.78477700000E+09	-4.29661794366E+01	-7.79517066111E+01	-9.77671593466E+00	-5.21041212576E+01	-9.77028437348E+00	-5.21486409753E+01	-3.46251486815E+01	6.71846602447E+01
1.79277600000E+09	-4.29477452271E+01	-7.80186604460E+01	-9.78184870021E+00	-5.23411413256E+01	-9.77497587708E+00	-5.23813957618E+01	-3.45914498369E+01	6.70703246266E+01
1.80077500000E+09	-4.29007338200E+01	-7.79202103991E+01	-9.78321432674E+00	-5.25688277546E+01	-9.77756196753E+00	-5.26063769398E+01	-3.45599049767E+01	6.69992940268E+01
1.80877400000E+09	-4.29007131621E+01	-7.80187671151E+01	-9.78512915072E+00	-5.27926698420E+01	-9.77984385331E+00	-5.28399676536E+01	-3.45074180504E+01	6.68428846449E+01
1.81677300000E+09	-4.28239418266E+01	-7.79559031725E+01	-9.78730960898E+00	-5.30085540159E+01	-9.78186938994E+00	-5.30469957555E+01	-3.44798365226E+01	6.67758804654E+01
1.82477200000E+09	-4.28025396301E+01	-7.78468858507E+01	-9.78825903064E+00	-5.32229649372E+01	-9.78156121163E+00	-5.32748317366E+01	-3.44376980391E+01	6.66806079865E+01
1.83277100000E+09	-4.27379652929E+01	-7.78309057598E+01	-9.78669556588E+00	-5.34307145679E+01	-9.78146989140E+00	-5.34863977362E+01	-3.43895318998E+01	6.65522251854E+01
1.84077000000E+09	-4.26830516732E+01	-7.78227516504E+01	-9.78508011830E+00	-5.36482249541E+01	-9.77858189796E+00	-5.37055928344E+01	-3.43568259018E+01	6.64148270678E+01
1.84876900000E+09	-4.26382585474E+01	-7.79091167105E+01	-9.78303267369E+00	-5.38703256331E+01	-9.77605036513E+00	-5.39219834300E+01	-3.42982842053E+01	6.64627670915E+01
1.85676800000E+09	-4.26195021394E+01	-7.79571479023E+01	-9.78022099632E+00	-5.41054831836E+01	-9.77419710836E+00	-5.41531634804E+01	-3.42565867205E+01	6.62826083742E+01
1.86476700000E+09	-4.25611930298E+01	-7.77316884983E+01	-9.77773670318E+00	-5.43476731677E+01	-9.77152219250E+00	-5.43911131520E+01	-3.42260088905E+01	6.62789416445E+01
1.87276600000E+09	-4.25591935820E+01	-7.76536624548E+01	-9.77592935414E+00	-5.45994400152E+01	-9.77224466128E+00	-5.46278710155E+01	-3.41878981601E+01	6.61394520191E+01
1.88076500000E+09	-4.24979259016E+01	-7.76112724717E+01	-9.77725042293E+00	-5.48461204746E+01	-9.77108165950E+00	-5.48730753136E+01	-3.41462491544E+01	6.62240679844E+01
1.88876400000E+09	-4.24358573414E+01	-7.74879966406E+01	-9.77711407848E+00	-5.50913572452E+01	-9.77031628229E+00	-5.51092313778E+01	-3.41118057319E+01	6.60803254994E+01
1.89676300000E+09	-4.24070895049E+01	-7.75458375444E+01	-9.77880863432E+00	-5.53401734865E+01	-9.77128739313E+00	-5.53519592643E+01	-3.40801913359E+01	6.60759460911E+01
1.90476200000E+09	-4.23641628768E+01	-7.73212488228E+01	-9.78197517059E+00	-5.55716192846E+01	-9.77428218650E+00	-5.55953841074E+01	-3.40326843038E+01	6.59921885541E+01
1.91276100000E+09	-4.23264068574E+01	-7.72771734721E+01	-9.78431050642E+00	-5.57936831330E+01	-9.77672496644E+00	-5.58231698769E+01	-3.40091133690E+01	6.59249042093E+01
1.92076000000E+09	-4.23031972839E+01	-7.71242403052E+01	-9.78611856387E+00	-5.60113600107E+01	-9.77669444584E+00	-5.60538248008E+01	-3.39988266875E+01	6.59437796989E+01
1.92875900000E+09	-4.22695084829E+01	-7.74162247426E+01	-9.78676822710E+00	-5.62224031674E+01	-9.77824067121E+00	-5.62718952389E+01	-3.39515191042E+01	6.57857676849E+01
1.93675800000E+09	-4.22490562317E+01	-7.72711128365E+01	-9.78625534050E+00	-5.64487576063E+01	-9.77762734704E+00	-5.64934878033E+01	-3.39273767013E+01	6.57241408194E+01
1.94475700000E+09	-4.21948518111E+01	-7.70643859601E+01	-9.78389275091E+00	-5.66661979045E+01	-9.77726178506E+00	-5.67173254096E+01	-3.38930218741E+01	6.56829184552E+01
1.95275600000E+09	-4.21377346465E+01	-7.73336846310E+01	-9.78185534445E+00	-5.68930170084E+01	-9.77547571216E+00	-5.69455083576E+01	-3.38495462487E+01	6.54243597219E+01
1.96075500000E+09	-4.21208938401E+01	-7.72480182259E+01	-9.77840225658E+00	-5.71246205051E+01	-9.77288197442E+00	-5.71825018902E+01	-3.38368213944E+01	6.54282763441E+01
1.96875400000E+09	-4.20702037136E+01	-7.72162215024E+01	-9.77612593718E+00	-5.73635542560E+01	-9.77251208169E+00	-5.74298221169E+01	-3.38087740561E+01	6.51786018084E+01
1.97675300000E+09	-4.20205678867E+01	-7.73664050835E+01	-9.77556967587E+00	-5.76173401630E+01	-9.77053507040E+00	-5.76771829120E+01	-3.37706294870E+01	6.50864588087E+01
1.98475200000E+09	-4.20150537278E+01	-7.70295459864E+01	-9.77512107160E+00	-5.78801460166E+01	-9.77077911169E+00	-5.79230568467E+01	-3.37302164389E+01	6.49275271292E+01
1.99275100000E+09	-4.19526606565E+01	-7.72286214826E+01	-9.77658462870E+00	-5.81415148918E+01	-9.77370624013E+00	-5.81662011745E+01	-3.37084637243E+01	6.47944595153E+01
2.00075000000E+09	-4.19366541792E+01	-7.71344303094E+01	-9.77895266506E+00	-5.83793496955E+01	-9.77591048283E+00	-5.83922960551E+01	-3.36722532496E+01	6.47137978085E+01
2.00874900000E+09	-4.18848554345E+01	-7.69616339820E+01	-9.78385506871E+00	-5.86165908907E+01	-9.77901733482E+00	-5.86307685753E+01	-3.36386684458E+01	6.45452833790E+01
2.01674800000E+09	-4.18559067610E+01	-7.69685856641E+01	-9.78580545986E+00	-5.88441873543E+01	-9.78067886193E+00	-5.88531387584E+01	-3.35835654818E+01	6.44832222765E+01
2.02474700000E+09	-4.17860253817E+01	-7.68498032820E+01	-9.79089684088E+00	-5.90638272562E+01	-9.78215255264E+00	-5.90655724354E+01	-3.35555731293E+01	6.43312043645E+01
2.03274600000E+09	-4.17467785100E+01	-7.66381945565E+01	-9.79256447529E+00	-5.92607361083E+01	-9.78498201976E+00	-5.92894587164E+01	-3.35189802517E+01	6.42394596571E+01
2.04074500000E+09	-4.17484774640E+01	-7.66713074463E+01	-9.79249969337E+00	-5.94726033891E+01	-9.78150981495E+00	-5.94966270324E+01	-3.34790807975E+01	6.41741540591E+01
2.04874400000E+09	-4.17116250934E+01	-7.67836542122E+01	-9.79135162485E+00	-5.96797457494E+01	-9.78058706013E+00	-5.97011608190E+01	-3.34331365103E+01	6.41579133828E+01
2.05674300000E+09	-4.16572344732E+01	-7.66891580078E+01	-9.78870649121E+00	-5.98897646669E+01	-9.77781977934E+00	-5.99376633826E+01	-3.33922191091E+01	6.40526473995E+01
2.06474200000E+09	-4.16446208240E+01	-7.65730771939E+01	-9.78422913979E+00	-6.01109726864E+01	-9.77504183766E+00	-6.01678870914E+01	-3.33635909742E+01	6.39204705537E+01
2.07274100000E+09	-4.16393705747E+01	-7.65898145325E+01	-9.77994674252E+00	-6.03496336722E+01	-9.77095923165E+00	-6.04094334966E+01	-3.33228186366E+01	6.38743824834E+01
2.08074000000E+09	-4.15710385751E+01	-7.64118243470E+01	-9.77603025201E+00	-6.06020599851E+01	-9.76986205227E+00	-6.06566002951E+01	-3.33046451090E+01	6.37400161250E+01
2.08873900000E+09	-4.15489838175E+01	-7.64413937372E+01	-9.77337780906E+00	-6.08531959143E+01	-9.76833162191E+00	-6.09280835040E+01	-3.32778205131E+01	6.36857866092E+01
2.09673800000E+09	-4.15335531690E+01	-7.63005060321E+01	-9.77365512039E+00	-6.11116442589E+01	-9.76960918788E+00	-6.11760008410E+01	-3.32526499517E+01	6.36255415336E+01
2.10473700000E+09	-4.14805303292E+01	-7.66196404330E+01	-9.77625584598E+00	-6.13681274525E+01	-9.77265632999E+00	-6.14250032799E+01	-3.32233534324E+01	6.35783378229E+01
2.11273600000E+09	-4.14231264907E+01	-7.63177182626E+01	-9.77830049959E+00	-6.16262153633E+01	-9.77551591128E+00	-6.16649153706E+01	-3.32021076250E+01	6.35449337112E+01
2.12073500000E+09	-4.14496762231E+01	-7.64070162823E+01	-9.78389980063E+00	-6.18619895017E+01	-9.77992396654E+00	-6.19000404481E+01	-3.31745955860E+01	6.33614167506E+01
2.12873400000E+09	-4.13667505465E+01	-7.63634706144E+01	-9.78704752892E+00	-6.20908725296E+01	-9.78372201297E+00	-6.21173507845E+01	-3.31283314179E+01	6.32452203705E+01
2.13673300000E+09	-4.13195005808E+01	-7.63477495507E+01	-9.79101814650E+00	-6.23104764556E+01	-9.78670416394E+00	-6.23309814809E+01	-3.31163519291E+01	6.31294082722E+01
2.14473200000E+09	-4.12705796526E+01	-7.63411515794E+01	-9.79391217373E+00	-6.25145067286E+01	-9.78886224283E+00	-6.25341688615E+01	-3.30754424542E+01	6.29660695963E+01
2.15273100000E+09	-4.12391192902E+01	-7.62706793297E+01	-9.79409978848E+00	-6.27096315016E+01	-9.78710910032E+00	-6.27359429674E+01	-3.30498273521E+01	6.28880817954E+01
2.16073000000E+09	-4.12128950299E+01	-7.62104496133E+01	-9.79258910996E+00	-6.29176395580E+01	-9.78660141779E+00	-6.29423659175E+01	-3.30001027830E+01	6.27135476151E+01
2.16872900000E+09	-4.11981364820E+01	-7.64226461800E+01	-9.78750775308E+00	-6.31179050405E+01	-9.78275925262E+00	-6.31530043609E+01	-3.29746791295E+01	6.25777424528E+01
2.17672800000E+09	-4.11404538954E+01	-7.59887480516E+01	-9.78337779742E+00	-6.33452476127E+01	-9.77899198754E+00	-6.33846537226E+01	-3.29372113722E+01	6.24629674867E+01
2.18472700000E+09	-4.11133464099E+01	-7.58960733497E+01	-9.77969916839E+00	-6.35812001391E+01	-9.77495112790E+00	-6.36291419002E+01	-3.29004053962E+01	6.22357331236E+01
2.19272600000E+09	-4.10733634267E+01	-7.58117245345E+01	-9.77587779922E+00	-6.38349757037E+01	-9.77145900291E+00	-6.38771674855E+01	-3.28659975590E+01	6.20455816538E+01
2.20072500000E+09	-4.10414601591E+01	-7.57568268986E+01	-9.77304136663E+00	-6.40984780154E+01	-9.76910146612E+00	-6.41421479848E+01	-3.28379043817E+01	6.20082229879E+01
2.20872400000E+09	-4.10044092245E+01	-7.54577217654E+01	-9.77258832693E+00	-6.43543713454E+01	-9.76902328572E+00	-6.43989673980E+01	-3.28094006046E+01	6.18417488268E+01
2.21672300000E+09	-4.09943584338E+01	-7.55880884090E+01	-9.77450483204E+00	-6.46171470831E+01	-9.77160294323E+00	-6.46559229647E+01	-3.27706317349E+01	6.18291416349E+01
2.22472200000E+09	-4.09724938833E+01	-7.55840866258E+01	-9.77750387441E+00	-6.48878388175E+01	-9.77619882133E+00	-6.49080581014E+01	-3.27596195144E+01	6.17326003439E+01
2.23272100000E+09	-4.09195978769E+01	-7.55822369232E+01	-9.78229792459E+00	-6.51261214374E+01	-9.77977653079E+00	-6.51451821026E+01	-3.27025552754E+01	6.16488347748E+01
2.24072000000E+09	-4.09444136238E+01	-7.54891807552E+01	-9.78648419893E+00	-6.53516420525E+01	-9.78368279944E+00	-6.53854201966E+01	-3.26754719846E+01	6.14532438650E+01
2.24871900000E+09	-4.08727268928E+01	-7.55128306083E+01	-9.79265954707E+00	-6.55681351020E+01	-9.78637890920E+00	-6.55945586091E+01	-3.26527618783E+01	6.13489017321E+01
2.25671800000E+09	-4.08437742210E+01	-7.57037058217E+01	-9.79347768485E+00	-6.57721630583E+01	-9.78744627776E+00	-6.58177497204E+01	-3.26255642240E+01	6.13656158951E+01
2.26471700000E+09	-4.08489875675E+01	-7.58055378840E+01	-9.79600089532E+00	-6.59793373260E+01	-9.78745076300E+00	-6.60212645349E+01	-3.25923680002E+01	6.11873140920E+01
2.27271600000E+09	-4.07970136202E+01	-7.58175785109E+01	-9.79283424634E+00	-6.61727877621E+01	-9.78600733363E+00	-6.62260718213E+01	-3.25612679572E+01	6.09819047787E+01
2.28071500000E+09	-4.07787689797E+01	-7.58389118216E+01	-9.78959876959E+00	-6.63953731573E+01	-9.78362670420E+00	-6.64506695363E+01	-3.25355387700E+01	6.09350030046E+01
2.28871400000E+09	-4.07513900666E+01	-7.57618802697E+01	-9.78626152566E+00	-6.66152722602E+01	-9.77881327173E+00	-6.66723994163E+01	-3.24960897606E+01	6.07386128915E+01
2.29671300000E+09	-4.06735510829E+01	-7.58012595705E+01	-9.77959376047E+00	-6.68571985635E+01	-9.77714495524E+00	-6.69150617236E+01	-3.24774700335E+01	6.06214359787E+01
2.30471200000E+09	-4.06492942290E+01	-7.59991432775E+01	-9.77446693169E+00	-6.71108980384E+01	-9.77316703409E+00	-6.71623690814E+01	-3.24530215664E+01	6.04358609523E+01
2.31271100000E+09	-4.05859280281E+01	-7.59495642674E+01	-9.77390218504E+00	-6.73786025571E+01	-9.77198100871E+00	-6.74160990012E+01	-3.24224803620E+01	6.03400561272E+01
2.32071000000E+09	-4.05390647430E+01	-7.58001665586E+01	-9.77284907739E+00	-6.76323703097E+01	-9.77259094739E+00	-6.76777525436E+01	-3.23895803724E+01	6.01453395333E+01
2.32870900000E+09	-4.04893124553E+01	-7.57782689439E+01	-9.77500788140E+00	-6.78963111775E+01	-9.77347601974E+00	-6.79224707799E+01	-3.23649844988E+01	6.00006260458E+01
2.33670800000E+09	-4.04614732682E+01	-7.58813561533E+01	-9.77849920102E+00	-6.81545479430E+01	-9.77676213033E+00	-6.81722311587E+01	-3.23194741424E+01	5.98936267411E+01
2.34470700000E+09	-4.04108864880E+01	-7.56056864811E+01	-9.78316947867E+00	-6.83841842246E+01	-9.77921310662E+00	-6.84016583671E+01	-3.22810136751E+01	5.97553088913E+01
2.35270600000E+09	-4.03610579918E+01	-7.55436675419E+01	-9.78642323377E+00	-6.86167273452E+01	-9.78241733210E+00	-6.86259876092E+01	-3.22453027952E+01	5.95870873985E+01
2.36070500000E+09	-4.03233353087E+01	-7.55711273908E+01	-9.78903081802E+00	-6.88372927866E+01	-9.78294081301E+00	-6.88506533637E+01	-3.22154538682E+01	5.93840875005E+01
2.36870400000E+09	-4.02894932384E+01	-7.54373049756E+01	-9.79100707550E+00	-6.90381386792E+01	-9.78367562548E+00	-6.90680871654E+01	-3.21754097365E+01	5.93210850396E+01
2.37670300000E+09	-4.02810397174E+01	-7.52581413732E+01	-9.79013352055E+00	-6.92509387725E+01	-9.78298492853E+00	-6.92851731992E+01	-3.21477345322E+01	5.91986609230E+01
2.38470200000E+09	-4.02559199125E+01	-7.53830544733E+01	-9.78833084782E+00	-6.94596157785E+01	-9.78108704057E+00	-6.95108665008E+01	-3.21292964656E+01	5.90882861764E+01
2.39270100000E+09	-4.02243203638E+01	-7.51957669420E+01	-9.78489894989E+00	-6.96806290752E+01	-9.77936735828E+00	-6.97374027227E+01	-3.20864229214E+01	5.89447450048E+01
2.40070000000E+09	-4.01960930034E+01	-7.50519478857E+01	-9.78127172113E+00	-6.99195416722E+01	-9.77641403015E+00	-6.99658554350E+01	-3.20546873252E+01	5.88670827053E+01
2.40869900000E+09	-4.01748638335E+01	-7.49579537205E+01	-9.77667663142E+00	-7.01655447994E+01	-9.77372934338E+00	-7.02137342499E+01	-3.20364494088E+01	5.87048817516E+01
2.41669800000E+09	-4.01340626633E+01	-7.50908882595E+01	-9.77577531306E+00	-7.04178289035E+01	-9.77207309791E+00	-7.04663081554E+01	-3.20071522249E+01	5.86675819687E+01
2.42469700000E+09	-4.01149273607E+01	-7.50151612016E+01	-9.77594319947E+00	-7.06775143271E+01	-9.77330656341E+00	-7.07182855125E+01	-3.19829573151E+01	5.85151317583E+01
2.43269600000E+09	-4.00829691269E+01	-7.50744526579E+01	-9.77693334085E+00	-7.09396738547E+01	-9.77589720567E+00	-7.09690799827E+01	-3.19593953502E+01	5.84595330831E+01
2.44069500000E+09	-4.00196217096E+01	-7.49365729612E+01	-9.78062808054E+00	-7.11877223505E+01	-9.77861337737E+00	-7.12014488651E+01	-3.19237704996E+01	5.83224746168E+01
2.44869400000E+09	-3.99948976972E+01	-7.51871688697E+01	-9.78399595838E+00	-7.14252813414E+01	-9.78257660236E+00	-7.14302015810E+01	-3.18944870755E+01	5.81547601132E+01
2.45669300000E+09	-3.99474140436E+01	-7.51157857522E+01	-9.78878764394E+00	-7.16449356210E+01	-9.78490800141E+00	-7.16537772345E+01	-3.18716559557E+01	5.80098979640E+01
2.46469200000E+09	-3.99196235245E+01	-7.50719306439E+01	-9.79115133259E+00	-7.18600387392E+01	-9.78635223132E+00	-7.18654568613E+01	-3.18512709816E+01	5.78783093678E+01
2.47269100000E+09	-3.99105504986E+01	-7.49771196831E+01	-9.79452417428E+00	-7.20655848575E+01	-9.78729035433E+00	-7.20736953766E+01	-3.18196561548E+01	5.76474857950E+01
2.48069000000E+09	-3.98232616701E+01	-7.49280066667E+01	-9.79240119332E+00	-7.22535415093E+01	-9.78588885545E+00	-7.22888437883E+01	-3.17937104580E+01	5.75668480309E+01
2.48868900000E+09	-3.98354415022E+01	-7.48797228694E+01	-9.78819926658E+00	-7.24645449717E+01	-9.78196800823E+00	-7.25013676363E+01	-3.17614972574E+01	5.73407183481E+01
2.49668800000E+09	-3.97423932396E+01	-7.48223646850E+01	-9.78429259898E+00	-7.26797901002E+01	-9.77773578856E+00	-7.27339914795E+01	-3.17144692261E+01	5.72198311808E+01
2.50468700000E+09	-3.97491799112E+01	-7.48325338442E+01	-9.78047499978E+00	-7.29264470063E+01	-9.77406883869E+00	-7.29746465999E+01	-3.16916208878E+01	5.70114479474E+01
2.51268600000E+09	-3.96532432579E+01	-7.48165258263E+01	-9.77446609848E+00	-7.31934889462E+01	-9.77267075544E+00	-7.32387352127E+01	-3.16814081768E+01	5.68407980290E+01
2.52068500000E+09	-3.96509894953E+01	-7.44668577479E+01	-9.77232457252E+00	-7.34455807335E+01	-9.76956355919E+00	-7.35007660008E+01	-3.16417665265E+01	5.67174761829E+01
2.52868400000E+09	-3.95975431486E+01	-7.45743351171E+01	-9.77066856420E+00	-7.37348615078E+01	-9.77032557707E+00	-7.37539367333E+01	-3.16230796845E+01	5.65603398870E+01
2.53668300000E+09	-3.96341765252E+01	-7.43266126455E+01	-9.77326921644E+00	-7.40039935481E+01	-9.77175815025E+00	-7.40231016688E+01	-3.15867450446E+01	5.65324859987E+01
2.54468200000E+09	-3.96153749256E+01	-7.44184955802E+01	-9.77566314183E+00	-7.42786364888E+01	-9.77667834007E+00	-7.42715311004E+01	-3.15623289316E+01	5.64445567442E+01
2.55268100000E+09	-3.95307473404E+01	-7.41463635171E+01	-9.78223685749E+00	-7.45288126348E+01	-9.78039712229E+00	-7.45133911126E+01	-3.15159352894E+01	5.64348033978E+01
2.56068000000E+09	-3.95020873711E+01	-7.41449361036E+01	-9.78946949306E+00	-7.47753921102E+01	-9.78674709593E+00	-7.47554647686E+01	-3.14747473296E+01	5.61609789538E+01
2.56867900000E+09	-3.94894867421E+01	-7.42551062943E+01	-9.79738158257E+00	-7.49899988433E+01	-9.79026899362E+00	-7.49638229686E+01	-3.14669972221E+01	5.61416129109E+01
2.57667800000E+09	-3.94747339306E+01	-7.41811964038E+01	-9.80132613909E+00	-7.51925737283E+01	-9.79062517046E+00	-7.51654860161E+01	-3.14394381243E+01	5.59063353785E+01
2.58467700000E+09	-3.94289348226E+01	-7.40955704876E+01	-9.80485019879E+00	-7.53958847929E+01	-9.79312076714E+00	-7.53718248909E+01	-3.14174106477E+01	5.58069212291E+01
2.59267600000E+09	-3.93786407637E+01	-7.40485586159E+01	-9.80597346035E+00	-7.55733668379E+01	-9.78981394116E+00	-7.55648760572E+01	-3.13981976718E+01	5.55464785122E+01
2.60067500000E+09	-3.94018381549E+01	-7.41952939366E+01	-9.80134527650E+00	-7.57684793576E+01	-9.78549431557E+00	-7.57880333798E+01	-3.13784641798E+01	5.56115914330E+01
2.60867400000E+09	-3.93890567797E+01	-7.42492322331E+01	-9.79678574956E+00	-7.59596759552E+01	-9.78033464124E+00	-7.60103391621E+01	-3.13468443432E+01	5.52874399199E+01
2.61667300000E+09	-3.93499625197E+01	-7.42252085349E+01	-9.78820889981E+00	-7.61945620298E+01	-9.77627428632E+00	-7.62606843800E+01	-3.13269641851E+01	5.51822219235E+01
2.62467200000E+09	-3.92868242504E+01	-7.41404037985E+01	-9.78063320576E+00	-7.64271348423E+01	-9.77201622450E+00	-7.65082769837E+01	-3.12956493679E+01	5.49697014978E+01
2.63267100000E+09	-3.92849909953E+01	-7.38511087005E+01	-9.77653525497E+00	-7.67047125684E+01	-9.77163058356E+00	-7.67848390144E+01	-3.12760541196E+01	5.48798204428E+01
2.64067000000E+09	-3.92124934502E+01	-7.43187371293E+01	-9.77286206372E+00	-7.69651136267E+01	-9.76869380878E+00	-7.70394245034E+01	-3.12633980981E+01	5.45058145592E+01
2.64866900000E+09	-3.91816964366E+01	-7.43504469177E+01	-9.77074437971E+00	-7.72635729487E+01	-9.77167111365E+00	-7.73184638302E+01	-3.12358703870E+01	5.43986135823E+01
2.65666800000E+09	-3.91265333096E+01	-7.42435236657E+01	-9.77408600972E+00	-7.75289151029E+01	-9.77715457722E+00	-7.75596755283E+01	-3.11958137082E+01	5.43045665769E+01
2.66466700000E+09	-3.91067082123E+01	-7.39388385179E+01	-9.77930513224E+00	-7.77959225849E+01	-9.78105062492E+00	-7.77893775908E+01	-3.11740437957E+01	5.41336625614E+01
2.67266600000E+09	-3.91270726224E+01	-7.38753722247E+01	-9.78555570205E+00	-7.80356152026E+01	-9.78663787126E+00	-7.80260654492E+01	-3.11254662670E+01	5.38694375743E+01
2.68066500000E+09	-3.90909224886E+01	-7.35779289840E+01	-9.79155519787E+00	-7.82671010497E+01	-9.78906861461E+00	-7.82541126788E+01	-3.10974064254E+01	5.37120553750E+01
2.68866400000E+09	-3.90184381339E+01	-7.35753484814E+01	-9.79456359505E+00	-7.84785355143E+01	-9.79260009403E+00	-7.84558993834E+01	-3.10591966278E+01	5.35847689148E+01
2.69666300000E+09	-3.90167478014E+01	-7.35007896752E+01	-9.79863822174E+00	-7.86820645146E+01	-9.79054509818E+00	-7.86560323461E+01	-3.10307470010E+01	5.35022833151E+01
2.70466200000E+09	-3.90004157178E+01	-7.33868347083E+01	-9.79866026901E+00	-7.88830573297E+01	-9.78965248661E+00	-7.88541475080E+01	-3.09936948496E+01	5.34827449475E+01
2.71266100000E+09	-3.89931493833E+01	-7.36614165255E+01	-9.79610929118E+00	-7.90884423612E+01	-9.78700190058E+00	-7.90761110036E+01	-3.09792083081E+01	5.32091348890E+01
2.72066000000E+09	-3.89783852037E+01	-7.36027795337E+01	-9.79179220474E+00	-7.93096266725E+01	-9.78220842825E+00	-7.93000922292E+01	-3.09412397791E+01	5.30674848451E+01
2.72865900000E+09	-3.89591253345E+01	-7.32076428236E+01	-9.78970281424E+00	-7.95357239248E+01	-9.77970328444E+00	-7.95376723633E+01	-3.09247785413E+01	5.29222220741E+01
2.73665800000E+09	-3.89005365153E+01	-7.33132715814E+01	-9.78425991162E+00	-7.97776213446E+01	-9.77499052384E+00	-7.97890686958E+01	-3.09138693822E+01	5.28787193377E+01
2.74465700000E+09	-3.89357579146E+01	-7.32458984998E+01	-9.78322075859E+00	-8.00252430986E+01	-9.77310301269E+00	-8.00566489214E+01	-3.08891062998E+01	5.27556537671E+01
2.75265600000E+09	-3.88967173146E+01	-7.36683434791E+01	-9.78064469999E+00	-8.03069737995E+01	-9.77415508004E+00	-8.03082647466E+01	-3.08682479228E+01	5.25994836541E+01
2.76065500000E+09	-3.88488793942E+01	-7.35808047284E+01	-9.78467470981E+00	-8.05765064454E+01	-9.77649907669E+00	-8.05662223222E+01	-3.08334235240E+01	5.24892893773E+01
2.76865400000E+09	-3.88653671506E+01	-7.37057517013E+01	-9.78638656017E+00	-8.08196903180E+01	-9.77993016929E+00	-8.08031322409E+01	-3.08152455445E+01	5.23242214127E+01
2.77665300000E+09	-3.88210593429E+01	-7.35137655663E+01	-9.79060410757E+00	-8.10665169943E+01	-9.78472215207E+00	-8.10411805004E+01	-3.07837750718E+01	5.21475416306E+01
2.78465200000E+09	-3.87810640268E+01	-7.36765030940E+01	-9.79594727529E+00	-8.12927614546E+01	-9.78880823767E+00	-8.12769495143E+01	-3.07531844478E+01	5.19962938020E+01
2.79265100000E+09	-3.87328841087E+01	-7.37436199500E+01	-9.80106300806E+00	-8.14910737020E+01	-9.79080938005E+00	-8.14756092264E+01	-3.07271978008E+01	5.17418171899E+01
2.80065000000E+09	-3.86769361513E+01	-7.39431066335E+01	-9.80199806881E+00	-8.16977982652E+01	-9.79128701174E+00	-8.16823366243E+01	-3.07092163843E+01	5.16015632410E+01
2.80864900000E+09	-3.86410440743E+01	-7.39116140767E+01	-9.80260367024E+00	-8.18811981130E+01	-9.79260966630E+00	-8.18975618488E+01	-3.06849155839E+01	5.13867014916E+01
2.81664800000E+09	-3.85658931743E+01	-7.37482540588E+01	-9.80021453492E+00	-8.20958338168E+01	-9.78946635893E+00	-8.21206887264E+01	-3.06577303475E+01	5.12020376124E+01
2.82464700000E+09	-3.85511991163E+01	-7.36487832077E+01	-9.79541067456E+00	-8.23137324329E+01	-9.78671708974E+00	-8.23312849629E+01	-3.06101261401E+01	5.11476357412E+01
2.83264600000E+09	-3.85145267745E+01	-7.36302322479E+01	-9.78914733640E+00	-8.25331189313E+01	-9.78113419638E+00	-8.25631149646E+01	-3.05730732232E+01	5.09703826575E+01
2.84064500000E+09	-3.84519798851E+01	-7.35599215242E+01	-9.78384282137E+00	-8.27901083464E+01	-9.77638110282E+00	-8.28023998993E+01	-3.05737408265E+01	5.08598044432E+01
2.84864400000E+09	-3.84088719371E+01	-7.34625590985E+01	-9.77945626792E+00	-8.30465623581E+01	-9.77472512671E+00	-8.30637576713E+01	-3.05336738606E+01	5.06208139612E+01
2.85664300000E+09	-3.84397064643E+01	-7.32145244776E+01	-9.77945639343E+00	-8.33199349829E+01	-9.77715637050E+00	-8.33235001464E+01	-3.05164824076E+01	5.06874661929E+01
2.86464200000E+09	-3.83832997787E+01	-7.33529551938E+01	-9.77963862284E+00	-8.35903394081E+01	-9.77629088388E+00	-8.35889127820E+01	-3.04701488669E+01	5.04189844491E+01
2.87264100000E+09	-3.83668623610E+01	-7.31006273572E+01	-9.78379346267E+00	-8.38556948209E+01	-9.78032139500E+00	-8.38345607589E+01	-3.04378186798E+01	5.05050417528E+01
2.88064000000E+09	-3.83030820785E+01	-7.27480156924E+01	-9.79102001021E+00	-8.41020609674E+01	-9.78379906812E+00	-8.40682978354E+01	-3.04127140030E+01	5.04229704178E+01
2.88863900000E+09	-3.82717860242E+01	-7.31042551159E+01	-9.79468861271E+00	-8.43416820452E+01	-9.78594761046E+00	-8.43027359281E+01	-3.03948835363E+01	5.01862989200E+01
2.89663800000E+09	-3.82718556764E+01	-7.29835176372E+01	-9.80123784945E+00	-8.45703959119E+01	-9.79122439440E+00	-8.45245060949E+01	-3.03810278339E+01	5.00442394846E+01
2.90463700000E+09	-3.82638535372E+01	-7.29818995314E+01	-9.80543173091E+00	-8.47787636871E+01	-9.79346401646E+00	-8.47342023245E+01	-3.03776040481E+01	4.98982761223E+01
2.91263600000E+09	-3.82162142581E+01	-7.30947340814E+01	-9.80781156066E+00	-8.49687181951E+01	-9.79229074750E+00	-8.49487429098E+01	-3.03588438648E+01	4.98869984321E+01
2.92063500000E+09	-3.81925324972E+01	-7.30912549625E+01	-9.80711021334E+00	-8.51719208428E+01	-9.79089165523E+00	-8.51530123989E+01	-3.03302253592E+01	4.97466750736E+01
2.92863400000E+09	-3.81223853870E+01	-7.29686600166E+01	-9.80504017955E+00	-8.53686241715E+01	-9.78902508778E+00	-8.53914131569E+01	-3.03196941534E+01	4.94194834642E+01
2.93663300000E+09	-3.81622614761E+01	-7.28228894283E+01	-9.80102163207E+00	-8.55861797629E+01	-9.78470383881E+00	-8.55987923441E+01	-3.03093291234E+01	4.92326020028E+01
2.94463200000E+09	-3.80722033283E+01	-7.27084017028E+01	-9.79566937258E+00	-8.58102353282E+01	-9.78212870442E+00	-8.58545520992E+01	-3.02875961754E+01	4.91046882395E+01
2.95263100000E+09	-3.80566281278E+01	-7.27379576406E+01	-9.79314789854E+00	-8.60610460387E+01	-9.78035443183E+00	-8.61014115214E+01	-3.02457807083E+01	4.87910308685E+01
2.96063000000E+09	-3.80291805476E+01	-7.25326750634E+01	-9.78571383853E+00	-8.63188209340E+01	-9.77923024412E+00	-8.63498509519E+01	-3.02454163932E+01	4.86400495893E+01
2.96862900000E+09	-3.79797454883E+01	-7.27654232269E+01	-9.78678853541E+00	-8.65730617208E+01	-9.78226817843E+00	-8.65958610605E+01	-3.02155057376E+01	4.84616928339E+01
2.97662800000E+09	-3.79945183109E+01	-7.25587149731E+01	-9.78848292067E+00	-8.68273676276E+01	-9.78544193412E+00	-8.68541308680E+01	-3.01666313440E+01	4.81277800964E+01
2.98462700000E+09	-3.79088015491E+01	-7.26256464689E+01	-9.79098608744E+00	-8.70783870833E+01	-9.78732166665E+00	-8.70771582057E+01	-3.01468783108E+01	4.80840826288E+01
2.99262600000E+09	-3.78870911385E+01	-7.23745273545E+01	-9.79371201401E+00	-8.73153216402E+01	-9.79027641337E+00	-8.73215065639E+01	-3.00992529514E+01	4.78057217254E+01
3.00062500000E+09	-3.78353265944E+01	-7.21895525135E+01	-9.79629470258E+00	-8.75548423673E+01	-9.79332499599E+00	-8.75380511597E+01	-3.00617065155E+01	4.78443469265E+01
3.00862400000E+09	-3.78305004737E+01	-7.21451152175E+01	-9.79850027504E+00	-8.77704122903E+01	-9.79093352224E+00	-8.77396427242E+01	-3.00288730440E+01	4.75605861623E+01
3.01662300000E+09	-3.78205551260E+01	-7.18786927837E+01	-9.79686945005E+00	-8.79835546121E+01	-9.79009547822E+00	-8.79548928346E+01	-3.00045093735E+01	4.75074641155E+01
3.02462200000E+09	-3.78212781084E+01	-7.20788958195E+01	-9.79377056418E+00	-8.82091226851E+01	-9.78663667122E+00	-8.81757233561E+01	-2.99651420362E+01	4.74071744021E+01
3.03262100000E+09	-3.77853316996E+01	-7.20055184950E+01	-9.78965978900E+00	-8.84425617421E+01	-9.78399664578E+00	-8.84043921228E+01	-2.99560751497E+01	4.72943369220E+01
3.04062000000E+09	-3.77933989756E+01	-7.21230155601E+01	-9.78644328182E+00	-8.86765979914E+01	-9.77903705523E+00	-8.86593356520E+01	-2.99096445431E+01	4.72384026528E+01
3.04861900000E+09	-3.77782160404E+01	-7.19050731710E+01	-9.78234996745E+00	-8.89318153539E+01	-9.77466960988E+00	-8.89056050040E+01	-2.98858925797E+01	4.71471174065E+01
3.05661800000E+09	-3.77357956934E+01	-7.19582273982E+01	-9.78135803891E+00	-8.91986427455E+01	-9.77447985623E+00	-8.91745787633E+01	-2.98899668923E+01	4.70910992971E+01
3.06461700000E+09	-3.77360009268E+01	-7.15929732959E+01	-9.77933859404E+00	-8.94753589729E+01	-9.77282344841E+00	-8.94463275549E+01	-2.98706663709E+01	4.69769277708E+01
3.07261600000E+09	-3.77366287635E+01	-7.17475850249E+01	-9.78595439807E+00	-8.97509795861E+01	-9.77617569696E+00	-8.97200967485E+01	-2.98699632917E+01	4.69660042643E+01
3.08061500000E+09	-3.77170497735E+01	-7.17292023646E+01	-9.78994131297E+00	-9.00063068463E+01	-9.78178438009E+00	-8.99646959696E+01	-2.98493641281E+01	4.67963542796E+01
3.08861400000E+09	-3.77044270294E+01	-7.18526512609E+01	-9.79994362744E+00	-9.02511004673E+01	-9.78863656606E+00	-9.02107757781E+01	-2.98538298230E+01	4.65587733162E+01
3.09661300000E+09	-3.76321682886E+01	-7.19694958763E+01	-9.80881653787E+00	-9.04647803471E+01	-9.79481953638E+00	-9.04278979309E+01	-2.98403647926E+01	4.64176723982E+01
3.10461200000E+09	-3.76400801816E+01	-7.19057433768E+01	-9.81575665939E+00	-9.06657763211E+01	-9.80011884328E+00	-9.06179696477E+01	-2.98527926489E+01	4.60406328367E+01
3.11261100000E+09	-3.75901960912E+01	-7.17809414446E+01	-9.82061753725E+00	-9.08418965601E+01	-9.80145687127E+00	-9.08116125555E+01	-2.98343349700E+01	4.57890624570E+01
3.12061000000E+09	-3.76104665341E+01	-7.16049436233E+01	-9.82116503231E+00	-9.10065167573E+01	-9.80479683540E+00	-9.10019108939E+01	-2.98126124819E+01	4.54670747944E+01
3.12860900000E+09	-3.75878182986E+01	-7.19031069826E+01	-9.81691455747E+00	-9.11631787402E+01	-9.79881823091E+00	-9.11799441252E+01	-2.97907843806E+01	4.54604346480E+01
3.13660800000E+09	-3.75088091839E+01	-7.20270318424E+01	-9.81182434974E+00	-9.13457779648E+01	-9.79572954424E+00	-9.13791793877E+01	-2.97572749125E+01	4.50580649105E+01
3.14460700000E+09	-3.74935744738E+01	-7.19877504344E+01	-9.80052892268E+00	-9.15395332350E+01	-9.78849249256E+00	-9.15988275038E+01	-2.97113809796E+01	4.48802690861E+01
3.15260600000E+09	-3.74347644125E+01	-7.20949910212E+01	-9.78946837508E+00	-9.17809462081E+01	-9.78077759395E+00	-9.18351639959E+01	-2.96894975450E+01	4.46364790895E+01
3.16060500000E+09	-3.74541280026E+01	-7.19700947409E+01	-9.77804751405E+00	-9.20368019190E+01	-9.77474529245E+00	-9.20908548336E+01	-2.96650051882E+01	4.42902944861E+01
3.16860400000E+09	-3.74301280382E+01	-7.23505847022E+01	-9.77226472790E+00	-9.23189705345E+01	-9.76981803646E+00	-9.23502580158E+01	-2.96135374434E+01	4.41933294391E+01
3.17660300000E+09	-3.74192248574E+01	-7.18459322402E+01	-9.76532594182E+00	-9.26279494012E+01	-9.76784616540E+00	-9.26333326541E+01	-2.95734388738E+01	4.40856267906E+01
3.18460200000E+09	-3.73775967406E+01	-7.18587872485E+01	-9.76856368495E+00	-9.29444480155E+01	-9.76911868428E+00	-9.29079752394E+01	-2.95215936242E+01	4.40288522125E+01
3.19260100000E+09	-3.73573406957E+01	-7.17918958857E+01	-9.77216913878E+00	-9.32337459202E+01	-9.77360066503E+00	-9.31758788523E+01	-2.94955492272E+01	4.39594273517E+01
3.20060000000E+09	-3.73112385143E+01	-7.17482258796E+01	-9.78047139507E+00	-9.35317120256E+01	-9.78056070441E+00	-9.34437043227E+01	-2.94750264797E+01	4.38798889503E+01
3.20859900000E+09	-3.72916194830E+01	-7.17571628262E+01	-9.79253766829E+00	-9.37958437705E+01	-9.78526204623E+00	-9.36752337331E+01	-2.94232817346E+01	4.38045365478E+01
3.21659800000E+09	-3.72805818050E+01	-7.17805170775E+01	-9.80279836274E+00	-9.40144364039E+01	-9.79206178536E+00	-9.38886443522E+01	-2.94097976328E+01	4.36911082336E+01
3.22459700000E+09	-3.72993160564E+01	-7.17345058155E+01	-9.81284340804E+00	-9.42191813821E+01	-9.79607046543E+00	-9.40930850612E+01	-2.94085757896E+01	4.35519937020E+01
3.23259600000E+09	-3.72427232536E+01	-7.16185759120E+01	-9.82082526314E+00	-9.43831870085E+01	-9.79840671372E+00	-9.42910613851E+01	-2.93761422749E+01	4.35788538250E+01
3.24059500000E+09	-3.72324204513E+01	-7.18346736948E+01	-9.82285126390E+00	-9.45568772801E+01	-9.79696807207E+00	-9.44860705118E+01	-2.93843136464E+01	4.35321956892E+01
3.24859400000E+09	-3.72357656170E+01	-7.15815778550E+01	-9.82006896915E+00	-9.47202564609E+01	-9.79533560308E+00	-9.46950809434E+01	-2.93906181529E+01	4.33274501301E+01
3.25659300000E+09	-3.71868903365E+01	-7.19485895272E+01	-9.81720912922E+00	-9.49043345968E+01	-9.79271498138E+00	-9.49068219838E+01	-2.93626403545E+01	4.33074431761E+01
3.26459200000E+09	-3.72031116825E+01	-7.17413125935E+01	-9.80634813886E+00	-9.51086075727E+01	-9.78580738503E+00	-9.51508594296E+01	-2.93455253833E+01	4.30715846259E+01
3.27259100000E+09	-3.71328222890E+01	-7.17747513309E+01	-9.80131080694E+00	-9.53495915126E+01	-9.78556776225E+00	-9.53891014229E+01	-2.93513531762E+01	4.29271320867E+01
3.28059000000E+09	-3.71092039306E+01	-7.18524683681E+01	-9.79494113000E+00	-9.55869580116E+01	-9.78092783306E+00	-9.56534536206E+01	-2.93380101364E+01	4.27544853068E+01
3.28858900000E+09	-3.70832088711E+01	-7.17673820789E+01	-9.78998269275E+00	-9.58473158027E+01	-9.78405370300E+00	-9.58920221026E+01	-2.93244043255E+01	4.25061306414E+01
3.29658800000E+09	-3.70447119621E+01	-7.17720490126E+01	-9.78818931950E+00	-9.61385687066E+01	-9.78396694119E+00	-9.61503492727E+01	-2.93072489609E+01	4.22786261724E+01
3.30458700000E+09	-3.69845970258E+01	-7.21085520490E+01	-9.78971665471E+00	-9.64041770040E+01	-9.79110249579E+00	-9.63783410263E+01	-2.92784048340E+01	4.19960716717E+01
3.31258600000E+09	-3.69857451646E+01	-7.17554375844E+01	-9.79331944721E+00	-9.66545828418E+01	-9.79060952685E+00	-9.66249978702E+01	-2.92407865948E+01	4.17377765473E+01
3.32058500000E+09	-3.69552794982E+01	-7.17095544833E+01	-9.79476725647E+00	-9.69033008456E+01	-9.79268834482E+00	-9.68386946641E+01	-2.92462321712E+01	4.15849197666E+01
3.32858400000E+09	-3.69695398171E+01	-7.18131517778E+01	-9.79994505357E+00	-9.71327267865E+01	-9.79118626442E+00	-9.70458197973E+01	-2.92029973433E+01	4.13330576312E+01
3.33658300000E+09	-3.69037461442E+01	-7.17671955070E+01	-9.80390640895E+00	-9.73554294597E+01	-9.78943908364E+00	-9.72605426242E+01	-2.91756280604E+01	4.11203671436E+01
3.34458200000E+09	-3.68876238984E+01	-7.16968327474E+01	-9.80042244101E+00	-9.75646886763E+01	-9.78876960985E+00	-9.74897727303E+01	-2.91464591289E+01	4.09340662696E+01
3.35258100000E+09	-3.68761312225E+01	-7.17716513068E+01	-9.79875942375E+00	-9.77862653630E+01	-9.78300910018E+00	-9.77036054369E+01	-2.91313986424E+01	4.08062000083E+01
3.36058000000E+09	-3.68116402539E+01	-7.16436350131E+01	-9.79491265402E+00	-9.80216199140E+01	-9.77609485627E+00	-9.79480142822E+01	-2.90867804157E+01	4.06678713300E+01
3.36857900000E+09	-3.68141270453E+01	-7.14403537347E+01	-9.79020021874E+00	-9.82618530791E+01	-9.77269124577E+00	-9.82256910273E+01	-2.90657813526E+01	4.05528670296E+01
3.37657800000E+09	-3.67940753237E+01	-7.18287810414E+01	-9.78920050050E+00	-9.85266957781E+01	-9.77377160400E+00	-9.85029475600E+01	-2.90296386990E+01	4.04626909234E+01
3.38457700000E+09	-3.67621528659E+01	-7.16128515542E+01	-9.78708437408E+00	-9.88124565304E+01	-9.77427809684E+00	-9.87968005479E+01	-2.90129073404E+01	4.04653282748E+01
3.39257600000E+09	-3.67518200933E+01	-7.13101038773E+01	-9.78939941760E+00	-9.90827927249E+01	-9.77632290971E+00	-9.90634485643E+01	-2.89930840626E+01	4.03066727523E+01
3.40057500000E+09	-3.67485893107E+01	-7.12734840580E+01	-9.79382534159E+00	-9.93471612678E+01	-9.78414369422E+00	-9.93192551575E+01	-2.89725970892E+01	4.02022104561E+01
3.40857400000E+09	-3.67157823952E+01	-7.12127162528E+01	-9.80171331695E+00	-9.95869263613E+01	-9.79085299779E+00	-9.95724284866E+01	-2.89618342319E+01	3.99877145146E+01
3.41657300000E+09	-3.67210375667E+01	-7.11549578920E+01	-9.81165284787E+00	-9.98407718435E+01	-9.79952569943E+00	-9.97775718554E+01	-2.89664719421E+01	3.98419525761E+01
3.42457200000E+09	-3.66572060220E+01	-7.11036400076E+01	-9.81864636119E+00	-1.00029300185E+02	-9.80690197865E+00	-9.99881933910E+01	-2.89482637638E+01	3.95832739251E+01
3.43257100000E+09	-3.66572963932E+01	-7.14157139815E+01	-9.82541902286E+00	-1.00214072882E+02	-9.81047392780E+00	-1.00174798747E+02	-2.89490884617E+01	3.94478699671E+01
3.44057000000E+09	-3.66275388467E+01	-7.12778494317E+01	-9.82866035458E+00	-1.00388601995E+02	-9.81136102036E+00	-1.00336952068E+02	-2.89392018568E+01	3.93244668235E+01
3.44856900000E+09	-3.66447221165E+01	-7.15103004178E+01	-9.82556024315E+00	-1.00546762573E+02	-9.80695693394E+00	-1.00515717917E+02	-2.89314343911E+01	3.91696170871E+01
3.45656800000E+09	-3.66305540750E+01	-7.12109644541E+01	-9.82011058573E+00	-1.00726522711E+02	-9.80342858930E+00	-1.00705788444E+02	-2.89021127814E+01	3.89372252778E+01
3.46456700000E+09	-3.66108406583E+01	-7.12214732837E+01	-9.81108925276E+00	-1.00923231694E+02	-9.79226216413E+00	-1.00912558191E+02	-2.88776930813E+01	3.87988561357E+01
3.47256600000E+09	-3.65830071785E+01	-7.11746857330E+01	-9.80178123620E+00	-1.01152352102E+02	-9.78234161325E+00	-1.01171557255E+02	-2.88498115789E+01	3.85577220136E+01
3.48056500000E+09	-3.65585104403E+01	-7.13603686023E+01	-9.79220164823E+00	-1.01402997296E+02	-9.77507351192E+00	-1.01427354087E+02	-2.88351906244E+01	3.83179106611E+01
3.48856400000E+09	-3.65489895154E+01	-7.13137131866E+01	-9.78397182270E+00	-1.01688233541E+02	-9.77131572237E+00	-1.01712101488E+02	-2.88005774742E+01	3.82194795709E+01
3.49656300000E+09	-3.65532729891E+01	-7.13287528989E+01	-9.77991318313E+00	-1.01982769949E+02	-9.76963814901E+00	-1.02009072764E+02	-2.87671333345E+01	3.79548180429E+01
3.50456200000E+09	-3.65486889832E+01	-7.14024915819E+01	-9.77735843025E+00	-1.02277277291E+02	-9.77118330372E+00	-1.02288712348E+02	-2.87449055802E+01	3.79710244468E+01
3.51256100000E+09	-3.65212187887E+01	-7.11978219280E+01	-9.78330734000E+00	-1.02576200836E+02	-9.77659359876E+00	-1.02569128707E+02	-2.87157607575E+01	3.77364574083E+01
3.52056000000E+09	-3.65248092885E+01	-7.13350884973E+01	-9.79099752945E+00	-1.02853992777E+02	-9.78646477338E+00	-1.02811833500E+02	-2.87011323038E+01	3.76008539891E+01
3.52855900000E+09	-3.64959387470E+01	-7.10505183348E+01	-9.80107679042E+00	-1.03106766846E+02	-9.79367104156E+00	-1.03060404873E+02	-2.86671746782E+01	3.74561779967E+01
3.53655800000E+09	-3.64650611636E+01	-7.11919686546E+01	-9.81088470502E+00	-1.03323331933E+02	-9.80145292476E+00	-1.03276795809E+02	-2.86630503007E+01	3.74146323329E+01
3.54455700000E+09	-3.64514606112E+01	-7.12503128904E+01	-9.82019245881E+00	-1.03516536239E+02	-9.80903126829E+00	-1.03454825931E+02	-2.86694451347E+01	3.72958939000E+01
3.55255600000E+09	-3.64246693735E+01	-7.13733331015E+01	-9.82349434867E+00	-1.03720866226E+02	-9.80868345196E+00	-1.03628593696E+02	-2.86450350430E+01	3.71108268531E+01
3.56055500000E+09	-3.64053826887E+01	-7.14560561178E+01	-9.82287468906E+00	-1.03891545573E+02	-9.80589700994E+00	-1.03818231667E+02	-2.86381075378E+01	3.70060836282E+01
3.56855400000E+09	-3.64149195297E+01	-7.14927876588E+01	-9.81851818754E+00	-1.04083951912E+02	-9.80135408967E+00	-1.04013535111E+02	-2.86236763665E+01	3.69303419937E+01
3.57655300000E+09	-3.63648754643E+01	-7.13921182896E+01	-9.81278276393E+00	-1.04282678245E+02	-9.79352489201E+00	-1.04241981380E+02	-2.86178837969E+01	3.67337698096E+01
3.58455200000E+09	-3.63741486056E+01	-7.17579270876E+01	-9.80569210573E+00	-1.04512842463E+02	-9.78801373673E+00	-1.04476988355E+02	-2.86103748052E+01	3.65519733892E+01
3.59255100000E+09	-3.63384853915E+01	-7.16481631948E+01	-9.79789409295E+00	-1.04761630697E+02	-9.78195228878E+00	-1.04740203806E+02	-2.86015870242E+01	3.62500577772E+01
3.60055000000E+09	-3.63258223311E+01	-7.15811100062E+01	-9.79498605310E+00	-1.05040257663E+02	-9.77897106246E+00	-1.05016448333E+02	-2.85822126555E+01	3.61155793800E+01
3.60854900000E+09	-3.62959705947E+01	-7.16556614674E+01	-9.79425622834E+00	-1.05323168087E+02	-9.78055611025E+00	-1.05293454466E+02	-2.85726085681E+01	3.58584160453E+01
3.61654800000E+09	-3.62685896383E+01	-7.16702494800E+01	-9.79959954345E+00	-1.05596878897E+02	-9.78447653829E+00	-1.05566556303E+02	-2.85573674434E+01	3.56101897117E+01
3.62454700000E+09	-3.62547098177E+01	-7.15608044798E+01	-9.80667312913E+00	-1.05862149895E+02	-9.79324285609E+00	-1.05825679539E+02	-2.85233583466E+01	3.53133094575E+01
3.63254600000E+09	-3.62232985548E+01	-7.16114144881E+01	-9.81373341731E+00	-1.06095064958E+02	-9.79609866584E+00	-1.06054936174E+02	-2.84905655546E+01	3.51339135069E+01
3.64054500000E+09	-3.61913462360E+01	-7.16574841520E+01	-9.82257671380E+00	-1.06310261641E+02	-9.80445350641E+00	-1.06268083153E+02	-2.84648241957E+01	3.49390717431E+01
3.64854400000E+09	-3.62118665211E+01	-7.17611861908E+01	-9.82956787102E+00	-1.06488864215E+02	-9.80830521023E+00	-1.06445789592E+02	-2.84439887188E+01	3.47922290511E+01
3.65654300000E+09	-3.61954776125E+01	-7.18868203036E+01	-9.83063164436E+00	-1.06664644583E+02	-9.80952265918E+00	-1.06643659753E+02	-2.84035513846E+01	3.46433623047E+01
3.66454200000E+09	-3.61548744895E+01	-7.18163346857E+01	-9.82790976536E+00	-1.06846034324E+02	-9.80601649213E+00	-1.06824610747E+02	-2.83885842814E+01	3.45237383125E+01
3.67254100000E+09	-3.61612692797E+01	-7.18560027517E+01	-9.82065651138E+00	-1.07011449372E+02	-9.79926848557E+00	-1.07005802299E+02	-2.83386157046E+01	3.44622109303E+01
3.68054000000E+09	-3.61577283011E+01	-7.19007959210E+01	-9.81007375223E+00	-1.07228723124E+02	-9.79394555144E+00	-1.07241972302E+02	-2.83269736143E+01	3.43682240010E+01
3.68853900000E+09	-3.61300136053E+01	-7.18552120309E+01	-9.79988151783E+00	-1.07458822352E+02	-9.78565298990E+00	-1.07483078103E+02	-2.83107742556E+01	3.42022654637E+01
3.69653800000E+09	-3.60970548965E+01	-7.17438676671E+01	-9.78832387375E+00	-1.07727189197E+02	-9.77506109518E+00	-1.07768518674E+02	-2.82693072347E+01	3.42690410238E+01
3.70453700000E+09	-3.61081580822E+01	-7.20941031561E+01	-9.78242075576E+00	-1.08034281455E+02	-9.77328990262E+00	-1.08045050021E+02	-2.82608901334E+01	3.41507251276E+01
3.71253600000E+09	-3.60420106404E+01	-7.19084849836E+01	-9.78083752791E+00	-1.08353200458E+02	-9.77402976568E+00	-1.08344790018E+02	-2.82575930312E+01	3.41108282676E+01
3.72053500000E+09	-3.60560536608E+01	-7.22214659342E+01	-9.78333303065E+00	-1.08676633190E+02	-9.77905735713E+00	-1.08647627560E+02	-2.82530325758E+01	3.39623592626E+01
3.72853400000E+09	-3.60464503852E+01	-7.19458638414E+01	-9.79425591392E+00	-1.08958663079E+02	-9.78917859494E+00	-1.08911863403E+02	-2.82471839450E+01	3.37513845638E+01
3.73653300000E+09	-3.59801459633E+01	-7.19479446352E+01	-9.80747038612E+00	-1.09241783419E+02	-9.79986030834E+00	-1.09161324658E+02	-2.82382985681E+01	3.36220043892E+01
3.74453200000E+09	-3.59491259999E+01	-7.22261182842E+01	-9.82172007283E+00	-1.09476128196E+02	-9.80847003864E+00	-1.09373188565E+02	-2.82498922945E+01	3.34281133693E+01
3.75253100000E+09	-3.59351827907E+01	-7.23639228622E+01	-9.83469101647E+00	-1.09674035073E+02	-9.81978383224E+00	-1.09559685392E+02	-2.82640946960E+01	3.32133767705E+01
3.76053000000E+09	-3.59434955450E+01	-7.25683056751E+01	-9.84292457188E+00	-1.09850658791E+02	-9.82313159491E+00	-1.09725377013E+02	-2.82605338342E+01	3.31089935874E+01
3.76852900000E+09	-3.59166060685E+01	-7.24394493762E+01	-9.84866454353E+00	-1.09981252323E+02	-9.82528572589E+00	-1.09898063128E+02	-2.82520884208E+01	3.28915966075E+01
3.77652800000E+09	-3.58986126823E+01	-7.24516603598E+01	-9.84900465177E+00	-1.10102363170E+02	-9.81625550433E+00	-1.10042573410E+02	-2.82221599736E+01	3.27344149418E+01
3.78452700000E+09	-3.58709214488E+01	-7.22706901185E+01	-9.83996252926E+00	-1.10256099247E+02	-9.81119965522E+00	-1.10240232230E+02	-2.82175454775E+01	3.25118814140E+01
3.79252600000E+09	-3.58505767189E+01	-7.23401630767E+01	-9.82924076544E+00	-1.10440944450E+02	-9.79910081621E+00	-1.10460044605E+02	-2.81992618675E+01	3.22274621275E+01
3.80052500000E+09	-3.58473929855E+01	-7.23610847534E+01	-9.81304250880E+00	-1.10660541742E+02	-9.78954196487E+00	-1.10699828590E+02	-2.81531570260E+01	3.19774820895E+01
3.80852400000E+09	-3.57974864780E+01	-7.25516285214E+01	-9.80098577520E+00	-1.10918324770E+02	-9.78160153929E+00	-1.10980667151E+02	-2.81418433053E+01	3.16845113777E+01
3.81652300000E+09	-3.58092067180E+01	-7.25643682113E+01	-9.79283954539E+00	-1.11226021059E+02	-9.77662083365E+00	-1.11280689777E+02	-2.80960628077E+01	3.16162117128E+01
3.82452200000E+09	-3.57869642613E+01	-7.25715319870E+01	-9.78533316034E+00	-1.11535380035E+02	-9.77648710767E+00	-1.11573493557E+02	-2.80828238665E+01	3.13962907060E+01
3.83252100000E+09	-3.57947931910E+01	-7.26219273934E+01	-9.78617051991E+00	-1.11860719167E+02	-9.78182860985E+00	-1.11866343947E+02	-2.80378744337E+01	3.13252952730E+01
3.84052000000E+09	-3.57474650545E+01	-7.24900628784E+01	-9.79364200032E+00	-1.12153890737E+02	-9.78822111871E+00	-1.12142872309E+02	-2.80067780254E+01	3.11456713549E+01
3.84851900000E+09	-3.57408549318E+01	-7.26213709117E+01	-9.80312583968E+00	-1.12440019659E+02	-9.80014839546E+00	-1.12375434022E+02	-2.79955609142E+01	3.10683595478E+01
3.85651800000E+09	-3.56795691351E+01	-7.27223825973E+01	-9.81361889662E+00	-1.12665990119E+02	-9.80870008054E+00	-1.12580949404E+02	-2.79835838418E+01	3.08477891655E+01
3.86451700000E+09	-3.56623016540E+01	-7.28952187743E+01	-9.82571505414E+00	-1.12899895513E+02	-9.81400569067E+00	-1.12783031477E+02	-2.79574857330E+01	3.09073844444E+01
3.87251600000E+09	-3.56747073992E+01	-7.27712838178E+01	-9.83231117134E+00	-1.13080037100E+02	-9.81758861438E+00	-1.12965837870E+02	-2.79554303140E+01	3.06876653850E+01
3.88051500000E+09	-3.56369790464E+01	-7.31361157635E+01	-9.83656618496E+00	-1.13249169363E+02	-9.81473813897E+00	-1.13131812988E+02	-2.79447036450E+01	3.07797234936E+01
3.88851400000E+09	-3.56024093377E+01	-7.29860155050E+01	-9.83375305842E+00	-1.13397820546E+02	-9.81267441010E+00	-1.13315622782E+02	-2.79440204969E+01	3.06552134234E+01
3.89651300000E+09	-3.55855081105E+01	-7.29752577085E+01	-9.82633278142E+00	-1.13597903685E+02	-9.80493925101E+00	-1.13524708311E+02	-2.79248914533E+01	3.05348897641E+01
3.90451200000E+09	-3.55426636269E+01	-7.32547818065E+01	-9.81950338032E+00	-1.13787171220E+02	-9.79314617534E+00	-1.13767549441E+02	-2.79229237076E+01	3.03954434910E+01
3.91251100000E+09	-3.55533859935E+01	-7.31377250511E+01	-9.80731249408E+00	-1.14049877561E+02	-9.78482222128E+00	-1.14035232695E+02	-2.79035032305E+01	3.01587893078E+01
3.92051000000E+09	-3.55093368422E+01	-7.30661345226E+01	-9.80424581717E+00	-1.14334710244E+02	-9.78155489618E+00	-1.14315630412E+02	-2.79138864271E+01	2.99303836658E+01
3.92850900000E+09	-3.54892219723E+01	-7.31932783796E+01	-9.79771463903E+00	-1.14624232899E+02	-9.78002391313E+00	-1.14618226468E+02	-2.79006053686E+01	2.97866880311E+01
3.93650800000E+09	-3.54753689063E+01	-7.29898871139E+01	-9.80626623257E+00	-1.14929347571E+02	-9.78514096147E+00	-1.14909964269E+02	-2.78899426686E+01	2.94449729172E+01
3.94450700000E+09	-3.54308088369E+01	-7.30921320817E+01	-9.80508898758E+00	-1.15206681783E+02	-9.79383398354E+00	-1.15182089399E+02	-2.78763207851E+01	2.92611740220E+01
3.95250600000E+09	-3.54260074710E+01	-7.29990209705E+01	-9.82285828746E+00	-1.15462911644E+02	-9.80395239180E+00	-1.15427361495E+02	-2.78581011536E+01	2.90012057393E+01
3.96050500000E+09	-3.53704593374E+01	-7.30555086315E+01	-9.82625147423E+00	-1.15672377830E+02	-9.81689566687E+00	-1.15647343336E+02	-2.78590815453E+01	2.88103075913E+01
3.96850400000E+09	-3.53594106599E+01	-7.32157004733E+01	-9.84320539282E+00	-1.15875637137E+02	-9.82492637848E+00	-1.15824337255E+02	-2.78363671488E+01	2.86642275868E+01
3.97650300000E+09	-3.53795870853E+01	-7.33247718283E+01	-9.84593719724E+00	-1.16031035857E+02	-9.82695295396E+00	-1.15986473690E+02	-2.78187422206E+01	2.86529033528E+01
3.98450200000E+09	-3.53750216854E+01	-7.32881294910E+01	-9.84821412066E+00	-1.16193435597E+02	-9.82670016196E+00	-1.16135417473E+02	-2.77714576199E+01	2.84554907230E+01
3.99250100000E+09	-3.53088130186E+01	-7.32443968005E+01	-9.84145240163E+00	-1.16333139130E+02	-9.82299001222E+00	-1.16308976309E+02	-2.77557970115E+01	2.83334529197E+01
4.00050000000E+09	-3.52993940903E+01	-7.32079001067E+01	-9.83176052067E+00	-1.16507896007E+02	-9.80951855653E+00	-1.16488569004E+02	-2.77199551712E+01	2.82691606750E+01
4.00849900000E+09	-3.52977544016E+01	-7.33254315932E+01	-9.81568800400E+00	-1.16701703393E+02	-9.79750952587E+00	-1.16707757201E+02	-2.77094621397E+01	2.80211675092E+01
4.01649800000E+09	-3.52740700888E+01	-7.35036377478E+01	-9.80079528211E+00	-1.16951885607E+02	-9.78546550140E+00	-1.16962531498E+02	-2.76929421197E+01	2.78516871438E+01
4.02449700000E+09	-3.52281602140E+01	-7.34675109032E+01	-9.78863474613E+00	-1.17260074546E+02	-9.77478549552E+00	-1.17270005170E+02	-2.76780211950E+01	2.79106346815E+01
4.03249600000E+09	-3.51819682508E+01	-7.35002243165E+01	-9.77846004515E+00	-1.17583865990E+02	-9.77055258705E+00	-1.17588437449E+02	-2.76520146993E+01	2.78048872719E+01
4.04049500000E+09	-3.51883958113E+01	-7.31760213425E+01	-9.78062725027E+00	-1.17922405054E+02	-9.77037153721E+00	-1.17899132949E+02	-2.76473224260E+01	2.76565001359E+01
4.04849400000E+09	-3.51722372649E+01	-7.33147321549E+01	-9.78319481652E+00	-1.18252185058E+02	-9.77757634000E+00	-1.18231300527E+02	-2.76402657599E+01	2.76738209826E+01
4.05649300000E+09	-3.51319573118E+01	-7.33116966081E+01	-9.79385736595E+00	-1.18585130218E+02	-9.78751965104E+00	-1.18510054723E+02	-2.76372699370E+01	2.73846163609E+01
4.06449200000E+09	-3.50920813706E+01	-7.33329226189E+01	-9.80997226574E+00	-1.18865418186E+02	-9.80283007780E+00	-1.18764899900E+02	-2.76424203786E+01	2.71176055794E+01
4.07249100000E+09	-3.50441772448E+01	-7.31853271865E+01	-9.82970907334E+00	-1.19100672597E+02	-9.81655576370E+00	-1.18982569268E+02	-2.76354398106E+01	2.69089073658E+01
4.08049000000E+09	-3.50421697930E+01	-7.34077823196E+01	-9.84356997957E+00	-1.19269358238E+02	-9.83041492282E+00	-1.19172944373E+02	-2.76480561343E+01	2.68070082436E+01
4.08848900000E+09	-3.50578108949E+01	-7.32951334749E+01	-9.85663416955E+00	-1.19442412442E+02	-9.83756091140E+00	-1.19323796140E+02	-2.76590808924E+01	2.67575916874E+01
4.09648800000E+09	-3.50043643304E+01	-7.31765253059E+01	-9.86010417136E+00	-1.19550463511E+02	-9.83910873625E+00	-1.19456823960E+02	-2.76221701566E+01	2.67618346250E+01
4.10448700000E+09	-3.50460814985E+01	-7.31355885167E+01	-9.85996041770E+00	-1.19679191671E+02	-9.83453773488E+00	-1.19598279112E+02	-2.76109957910E+01	2.63478791306E+01
4.11248600000E+09	-3.49847249277E+01	-7.28000529554E+01	-9.84832630547E+00	-1.19804012283E+02	-9.82453557797E+00	-1.19780038321E+02	-2.75808889992E+01	2.62965058562E+01
4.12048500000E+09	-3.49763040285E+01	-7.27423979084E+01	-9.83932154490E+00	-1.19990638442E+02	-9.81269804737E+00	-1.19976821315E+02	-2.75521164064E+01	2.60083458975E+01
4.12848400000E+09	-3.49851783955E+01	-7.28641043030E+01	-9.81966823685E+00	-1.20206453305E+02	-9.80088086940E+00	-1.20225236283E+02	-2.75483643273E+01	2.57116645749E+01
4.13648300000E+09	-3.49869734082E+01	-7.26065791393E+01	-9.80813506411E+00	-1.20484015583E+02	-9.79178577289E+00	-1.20490570339E+02	-2.75321521525E+01	2.55139386165E+01
4.14448200000E+09	-3.49710394735E+01	-7.28165610330E+01	-9.79752460998E+00	-1.20790790413E+02	-9.78432114904E+00	-1.20787690608E+02	-2.74910943578E+01	2.53707419246E+01
4.15248100000E+09	-3.49755310903E+01	-7.26704462225E+01	-9.79021739701E+00	-1.21109136263E+02	-9.78308563331E+00	-1.21092848065E+02	-2.74738786826E+01	2.53385853086E+01
4.16048000000E+09	-3.49732910315E+01	-7.27658370806E+01	-9.79626956226E+00	-1.21425094123E+02	-9.78553832466E+00	-1.21390953171E+02	-2.74409081490E+01	2.53575901307E+01
4.16847900000E+09	-3.49559216731E+01	-7.26385453728E+01	-9.80077228217E+00	-1.21725639152E+02	-9.79318205759E+00	-1.21669872187E+02	-2.74507887270E+01	2.51658648613E+01
4.17647800000E+09	-3.49673380653E+01	-7.25899678798E+01	-9.81185515513E+00	-1.22002394779E+02	-9.80336894713E+00	-1.21931556719E+02	-2.74246109920E+01	2.49563509270E+01
4.18447700000E+09	-3.48892187162E+01	-7.25741686676E+01	-9.82540274266E+00	-1.22247956748E+02	-9.80902816940E+00	-1.22140163785E+02	-2.74280062147E+01	2.48944173567E+01
4.19247600000E+09	-3.48987391737E+01	-7.27744476597E+01	-9.83436235121E+00	-1.22442185290E+02	-9.81995173123E+00	-1.22342442720E+02	-2.74240113757E+01	2.49544209926E+01
4.20047500000E+09	-3.49262622252E+01	-7.27886468117E+01	-9.83880838612E+00	-1.22623101483E+02	-9.81928135322E+00	-1.22518840746E+02	-2.74285702879E+01	2.48332408082E+01
4.20847400000E+09	-3.48870765569E+01	-7.30676841860E+01	-9.83965593197E+00	-1.22774990120E+02	-9.81977007954E+00	-1.22674057933E+02	-2.74196976906E+01	2.47555934836E+01
4.21647300000E+09	-3.48516793775E+01	-7.26142761185E+01	-9.83634304690E+00	-1.22951887227E+02	-9.81589978238E+00	-1.22889077374E+02	-2.74040331763E+01	2.46192907675E+01
4.22447200000E+09	-3.48959917437E+01	-7.28381485318E+01	-9.82808563429E+00	-1.23150577679E+02	-9.80847368788E+00	-1.23082726066E+02	-2.74004741457E+01	2.42605507806E+01
4.23247100000E+09	-3.48750276970E+01	-7.27185193218E+01	-9.81769777434E+00	-1.23378117954E+02	-9.79891672605E+00	-1.23336779705E+02	-2.74051841989E+01	2.41462752713E+01
4.24047000000E+09	-3.48544716097E+01	-7.25430820096E+01	-9.81106122580E+00	-1.23632554894E+02	-9.79359966891E+00	-1.23609907577E+02	-2.74144181079E+01	2.39683626269E+01
4.24846900000E+09	-3.48608280225E+01	-7.26751004784E+01	-9.80410455839E+00	-1.23924339360E+02	-9.78866870510E+00	-1.23887919217E+02	-2.73913194148E+01	2.37076821057E+01
4.25646800000E+09	-3.48428462603E+01	-7.24620099859E+01	-9.80298228234E+00	-1.24242283527E+02	-9.79025122715E+00	-1.24196649694E+02	-2.73706560152E+01	2.32768372667E+01
4.26446700000E+09	-3.48857158438E+01	-7.24559995632E+01	-9.80999177540E+00	-1.24540454465E+02	-9.79411048741E+00	-1.24481308351E+02	-2.73700827081E+01	2.31611769049E+01
4.27246600000E+09	-3.48388460143E+01	-7.27094225766E+01	-9.81551149273E+00	-1.24816034684E+02	-9.80532136253E+00	-1.24739088089E+02	-2.73617870974E+01	2.29840315981E+01
4.28046500000E+09	-3.48398902482E+01	-7.22456842460E+01	-9.82841865081E+00	-1.25078493410E+02	-9.81344573848E+00	-1.25010985248E+02	-2.73376356603E+01	2.27431980573E+01
4.28846400000E+09	-3.48152569525E+01	-7.23583469742E+01	-9.83930256856E+00	-1.25286014085E+02	-9.82513742219E+00	-1.25194700714E+02	-2.73332373066E+01	2.24925761899E+01
4.29646300000E+09	-3.48539176516E+01	-7.24832339537E+01	-9.85119673034E+00	-1.25464283695E+02	-9.83234495544E+00	-1.25370596691E+02	-2.72975676154E+01	2.25475089316E+01
4.30446200000E+09	-3.48428727979E+01	-7.26650652868E+01	-9.85569985841E+00	-1.25630427365E+02	-9.83210332728E+00	-1.25547092720E+02	-2.72752140958E+01	2.23433195550E+01
4.31246100000E+09	-3.48947753491E+01	-7.28137981303E+01	-9.85637418944E+00	-1.25748090750E+02	-9.83343068593E+00	-1.25676093207E+02	-2.72643891922E+01	2.22495753377E+01
4.32046000000E+09	-3.49306660261E+01	-7.24610405815E+01	-9.85105910921E+00	-1.25907458183E+02	-9.82424312409E+00	-1.25850766316E+02	-2.72063070752E+01	2.22083104636E+01
4.32845900000E+09	-3.48657913808E+01	-7.27743215019E+01	-9.83838110981E+00	-1.26068828201E+02	-9.81233133972E+00	-1.26050351820E+02	-2.71891352984E+01	2.20849995199E+01
4.33645800000E+09	-3.48891025997E+01	-7.29603057832E+01	-9.82401373418E+00	-1.26299162611E+02	-9.80244919757E+00	-1.26284099507E+02	-2.71828727133E+01	2.19070962219E+01
4.34445700000E+09	-3.48823941602E+01	-7.32075402835E+01	-9.80779559096E+00	-1.26539107122E+02	-9.79083114554E+00	-1.26543395313E+02	-2.71740698073E+01	2.19737138806E+01
4.35245600000E+09	-3.49033885270E+01	-7.35775736087E+01	-9.79646449284E+00	-1.26841725355E+02	-9.78263714798E+00	-1.26831614719E+02	-2.71538423556E+01	2.19036394207E+01
4.36045500000E+09	-3.49303804098E+01	-7.33392419764E+01	-9.79010533641E+00	-1.27157994716E+02	-9.77650000603E+00	-1.27173960732E+02	-2.71545607790E+01	2.18822739217E+01
4.36845400000E+09	-3.48824279827E+01	-7.36375857535E+01	-9.78687681700E+00	-1.27512374624E+02	-9.78231028497E+00	-1.27451788897E+02	-2.71413194339E+01	2.17436876758E+01
4.37645300000E+09	-3.48476263146E+01	-7.34557307452E+01	-9.79203853200E+00	-1.27840540550E+02	-9.78672714856E+00	-1.27788855756E+02	-2.71390155228E+01	2.15638123010E+01
4.38445200000E+09	-3.48392350581E+01	-7.35172557088E+01	-9.80419759866E+00	-1.28138710458E+02	-9.79717688327E+00	-1.28078517592E+02	-2.71428715832E+01	2.14067574616E+01
4.39245100000E+09	-3.48102141887E+01	-7.39896985182E+01	-9.82260288014E+00	-1.28425624148E+02	-9.81243038078E+00	-1.28319799970E+02	-2.71600714183E+01	2.12662709562E+01
4.40045000000E+09	-3.47821098804E+01	-7.40441421753E+01	-9.83954602788E+00	-1.28660451813E+02	-9.82639849334E+00	-1.28533549766E+02	-2.71848728442E+01	2.11025428425E+01
4.40844900000E+09	-3.47835859366E+01	-7.40302103168E+01	-9.84994779701E+00	-1.28834619694E+02	-9.83124878143E+00	-1.28699686331E+02	-2.71732637733E+01	2.08330423104E+01
4.41644800000E+09	-3.47852126949E+01	-7.44435587999E+01	-9.86184132186E+00	-1.28981695023E+02	-9.83870771135E+00	-1.28846759189E+02	-2.71688170101E+01	2.08582903117E+01
4.42444700000E+09	-3.47852967873E+01	-7.40810419877E+01	-9.86751512501E+00	-1.29114609587E+02	-9.83670373844E+00	-1.28995540227E+02	-2.71551459206E+01	2.07407860952E+01
4.43244600000E+09	-3.48060246968E+01	-7.41769110242E+01	-9.86384928307E+00	-1.29246738356E+02	-9.82886777970E+00	-1.29163875300E+02	-2.71252498350E+01	2.04179268717E+01
4.44044500000E+09	-3.47659110768E+01	-7.43295021895E+01	-9.85490701155E+00	-1.29400156166E+02	-9.82044451326E+00	-1.29356427207E+02	-2.71120135813E+01	2.02599051959E+01
4.44844400000E+09	-3.47406149551E+01	-7.41826118307E+01	-9.84242936346E+00	-1.29569513440E+02	-9.80921274558E+00	-1.29577018597E+02	-2.70931918940E+01	1.99766462658E+01
4.45644300000E+09	-3.47254600056E+01	-7.43863867533E+01	-9.82710986538E+00	-1.29805272693E+02	-9.79839984985E+00	-1.29832473702E+02	-2.70809033376E+01	1.97842225923E+01
4.46444200000E+09	-3.47383647224E+01	-7.44599587199E+01	-9.81102072813E+00	-1.30075901862E+02	-9.78864194199E+00	-1.30120253316E+02	-2.70754537865E+01	1.95590448012E+01
4.47244100000E+09	-3.47328277947E+01	-7.44673909297E+01	-9.80294279391E+00	-1.30376801339E+02	-9.78375153815E+00	-1.30418721581E+02	-2.70500041738E+01	1.95363295207E+01
4.48044000000E+09	-3.47418607325E+01	-7.46411797129E+01	-9.80181207867E+00	-1.30694954417E+02	-9.78569754777E+00	-1.30724668086E+02	-2.70221240671E+01	1.93933575138E+01
4.48843900000E+09	-3.46962404408E+01	-7.47496316896E+01	-9.80185117959E+00	-1.30998691433E+02	-9.79449847004E+00	-1.31008408518E+02	-2.70038989390E+01	1.92701910746E+01
4.49643800000E+09	-3.46897402323E+01	-7.48461040956E+01	-9.80755020625E+00	-1.31297855835E+02	-9.80291798544E+00	-1.31289307011E+02	-2.69860414583E+01	1.90783851092E+01
4.50443700000E+09	-3.46717981830E+01	-7.50654659073E+01	-9.82018220179E+00	-1.31585472764E+02	-9.81331614771E+00	-1.31517805683E+02	-2.69808723673E+01	1.90497899111E+01
4.51243600000E+09	-3.46550770668E+01	-7.50660821863E+01	-9.83082860479E+00	-1.31810940990E+02	-9.82108594309E+00	-1.31725075197E+02	-2.69772991830E+01	1.90648006304E+01
4.52043500000E+09	-3.46085207034E+01	-7.53012855028E+01	-9.84080340493E+00	-1.32028318880E+02	-9.82587846152E+00	-1.31913429921E+02	-2.69785011962E+01	1.89780963370E+01
4.52843400000E+09	-3.46099679247E+01	-7.53461490976E+01	-9.84980654980E+00	-1.32209487378E+02	-9.82956686265E+00	-1.32084398240E+02	-2.69762710874E+01	1.89553877615E+01
4.53643300000E+09	-3.45646148054E+01	-7.53141753982E+01	-9.85378092003E+00	-1.32370813458E+02	-9.82735374952E+00	-1.32236785802E+02	-2.69547388375E+01	1.89718322179E+01
4.54443200000E+09	-3.45574115738E+01	-7.52327623821E+01	-9.84669521408E+00	-1.32545781781E+02	-9.81771072263E+00	-1.32440856523E+02	-2.69621809120E+01	1.87542219915E+01
4.55243100000E+09	-3.45518008535E+01	-7.53209955022E+01	-9.84050591700E+00	-1.32722877648E+02	-9.80964476080E+00	-1.32653011796E+02	-2.69763137604E+01	1.86730107318E+01
4.56043000000E+09	-3.45166931925E+01	-7.53859015322E+01	-9.83606496035E+00	-1.32941569068E+02	-9.80023565508E+00	-1.32889154697E+02	-2.69676426680E+01	1.84811452601E+01
4.56842900000E+09	-3.44965892551E+01	-7.54187405149E+01	-9.82827596213E+00	-1.33182542261E+02	-9.79335376166E+00	-1.33169388395E+02	-2.69622629244E+01	1.83212814999E+01
4.57642800000E+09	-3.45055434197E+01	-7.51778448553E+01	-9.81626198278E+00	-1.33441339824E+02	-9.79117272882E+00	-1.33455221241E+02	-2.69660984039E+01	1.81435049711E+01
4.58442700000E+09	-3.44812049726E+01	-7.52319694636E+01	-9.81619583715E+00	-1.33731777856E+02	-9.79192927722E+00	-1.33772119797E+02	-2.69562733771E+01	1.79312244592E+01
4.59242600000E+09	-3.44605459853E+01	-7.50284101335E+01	-9.81053749377E+00	-1.34028279313E+02	-9.79590694499E+00	-1.34065222215E+02	-2.69537950516E+01	1.77351520228E+01
4.60042500000E+09	-3.44682434022E+01	-7.50868550065E+01	-9.82060500550E+00	-1.34304688921E+02	-9.80692302444E+00	-1.34309977700E+02	-2.69589774604E+01	1.75712070029E+01
4.60842400000E+09	-3.44797903953E+01	-7.51590400679E+01	-9.82230774977E+00	-1.34561952569E+02	-9.81614114940E+00	-1.34565353625E+02	-2.69462673872E+01	1.73550973421E+01
4.61642300000E+09	-3.44389190012E+01	-7.52139303534E+01	-9.83580390169E+00	-1.34815331948E+02	-9.82711269329E+00	-1.34767892465E+02	-2.69395105659E+01	1.72561081051E+01
4.62442200000E+09	-3.44633725321E+01	-7.52303740521E+01	-9.83930164940E+00	-1.35028299023E+02	-9.83344033681E+00	-1.34963069760E+02	-2.69380337355E+01	1.70809608648E+01
4.63242100000E+09	-3.44836648423E+01	-7.49924935938E+01	-9.84790145614E+00	-1.35230941318E+02	-9.83756092210E+00	-1.35118430006E+02	-2.69237709011E+01	1.69337412145E+01
4.64042000000E+09	-3.44600564226E+01	-7.52140563758E+01	-9.84811559165E+00	-1.35401553952E+02	-9.83703209415E+00	-1.35285502868E+02	-2.69016696392E+01	1.69013661458E+01
4.64841900000E+09	-3.45031274614E+01	-7.50890740293E+01	-9.84994016162E+00	-1.35593485372E+02	-9.82960704740E+00	-1.35465308283E+02	-2.68927797289E+01	1.67562263224E+01
4.65641800000E+09	-3.45111158258E+01	-7.51438453023E+01	-9.84627553084E+00	-1.35784389405E+02	-9.82274049590E+00	-1.35663111823E+02	-2.68774822987E+01	1.66145604308E+01
4.66441700000E+09	-3.45089219466E+01	-7.54188707622E+01	-9.83856142479E+00	-1.35991479256E+02	-9.81060913489E+00	-1.35872859132E+02	-2.68656035007E+01	1.63882887216E+01
4.67241600000E+09	-3.44742807925E+01	-7.52681435144E+01	-9.83062891419E+00	-1.36230557453E+02	-9.80199796774E+00	-1.36113168400E+02	-2.68661204358E+01	1.63120630751E+01
4.68041500000E+09	-3.45226837188E+01	-7.55643397140E+01	-9.82439288047E+00	-1.36467605149E+02	-9.79238978078E+00	-1.36405218475E+02	-2.68563320425E+01	1.62291081708E+01
4.68841400000E+09	-3.44965509526E+01	-7.55497311748E+01	-9.82346415031E+00	-1.36729648495E+02	-9.79240705751E+00	-1.36689917096E+02	-2.68491156846E+01	1.61439083082E+01
4.69641300000E+09	-3.44535616776E+01	-7.58730543802E+01	-9.81949545745E+00	-1.37021029133E+02	-9.79223931078E+00	-1.36997715926E+02	-2.68601900360E+01	1.59731294598E+01
4.70441200000E+09	-3.44728567841E+01	-7.57902346361E+01	-9.82198872221E+00	-1.37291409842E+02	-9.79785178904E+00	-1.37291531193E+02	-2.68467592705E+01	1.57789587589E+01
4.71241100000E+09	-3.44568966662E+01	-7.59389857449E+01	-9.82476972592E+00	-1.37558983001E+02	-9.80514052854E+00	-1.37547919062E+02	-2.68579383565E+01	1.55870942018E+01
4.72041000000E+09	-3.44204855958E+01	-7.59457569310E+01	-9.82851399639E+00	-1.37804731278E+02	-9.81400465539E+00	-1.37797519896E+02	-2.68643857441E+01	1.53976283101E+01
4.72840900000E+09	-3.44055442010E+01	-7.59154941812E+01	-9.83457935124E+00	-1.38035935195E+02	-9.82040523751E+00	-1.38024002500E+02	-2.68495981394E+01	1.53441234101E+01
4.73640800000E+09	-3.44300619545E+01	-7.61236350869E+01	-9.83805966204E+00	-1.38255984530E+02	-9.82919657259E+00	-1.38212393295E+02	-2.68503815083E+01	1.50368819366E+01
4.74440700000E+09	-3.43859275682E+01	-7.62399580778E+01	-9.84103612340E+00	-1.38456226492E+02	-9.82965050864E+00	-1.38409899831E+02	-2.68298278015E+01	1.49447824512E+01
4.75240600000E+09	-3.44071631632E+01	-7.61649435720E+01	-9.83757137375E+00	-1.38676900533E+02	-9.83126081195E+00	-1.38587162115E+02	-2.68200373700E+01	1.47054052232E+01
4.76040500000E+09	-3.43955216963E+01	-7.63416291555E+01	-9.83819057161E+00	-1.38889287419E+02	-9.82625791392E+00	-1.38754751848E+02	-2.68073298724E+01	1.45321311977E+01
4.76840400000E+09	-3.43921116434E+01	-7.62726102909E+01	-9.83293911873E+00	-1.39122052242E+02	-9.82055959525E+00	-1.38974501661E+02	-2.67684720549E+01	1.43454129049E+01
4.77640300000E+09	-3.43915744020E+01	-7.63370256033E+01	-9.83263465577E+00	-1.39370596685E+02	-9.81397916359E+00	-1.39190460021E+02	-2.67522138563E+01	1.40520895017E+01
4.78440200000E+09	-3.44102656682E+01	-7.62800431998E+01	-9.83040314830E+00	-1.39630911486E+02	-9.80810551072E+00	-1.39456835753E+02	-2.67465565581E+01	1.40193026115E+01
4.79240100000E+09	-3.43872609470E+01	-7.66323669281E+01	-9.83026923730E+00	-1.39886681089E+02	-9.80449535165E+00	-1.39720378046E+02	-2.67288353707E+01	1.39220236762E+01
4.80040000000E+09	-3.43924817118E+01	-7.64673241351E+01	-9.83033426901E+00	-1.40162736085E+02	-9.80221956160E+00	-1.39984871145E+02	-2.67159321032E+01	1.38066563444E+01
4.80839900000E+09	-3.43981197297E+01	-7.67745901373E+01	-9.83669608486E+00	-1.40389689315E+02	-9.80347436110E+00	-1.40261705893E+02	-2.66936160897E+01	1.38013401678E+01
4.81639800000E+09	-3.43514377386E+01	-7.69556146311E+01	-9.84393420734E+00	-1.40648422102E+02	-9.80826790312E+00	-1.40514530258E+02	-2.66780404479E+01	1.36838319821E+01
4.82439700000E+09	-3.43498748432E+01	-7.70625257322E+01	-9.85072628261E+00	-1.40854117961E+02	-9.81313124032E+00	-1.40762175424E+02	-2.66856692221E+01	1.36964509052E+01
4.83239600000E+09	-3.43522645922E+01	-7.72030393762E+01	-9.85434958392E+00	-1.41056507407E+02	-9.82048166107E+00	-1.40981705895E+02	-2.66743715443E+01	1.36505259103E+01
4.84039500000E+09	-3.43278737375E+01	-7.72195564022E+01	-9.85555475810E+00	-1.41231031147E+02	-9.82522531995E+00	-1.41191062197E+02	-2.66583072166E+01	1.36021040647E+01
4.84839400000E+09	-3.43056333992E+01	-7.74017109506E+01	-9.85687308794E+00	-1.41415776038E+02	-9.82490894639E+00	-1.41375895070E+02	-2.66721234283E+01	1.35300828786E+01
4.85639300000E+09	-3.42667924809E+01	-7.75621428930E+01	-9.85053751936E+00	-1.41610349516E+02	-9.82408771861E+00	-1.41578960088E+02	-2.66733392236E+01	1.34938213140E+01
4.86439200000E+09	-3.42334588856E+01	-7.74955995507E+01	-9.84406463610E+00	-1.41798110048E+02	-9.82019634362E+00	-1.41788130347E+02	-2.66802904862E+01	1.33298042149E+01
4.87239100000E+09	-3.42028303897E+01	-7.74951738130E+01	-9.83352160327E+00	-1.42026388378E+02	-9.81366794660E+00	-1.42008518285E+02	-2.66886336596E+01	1.31270634530E+01
4.88039000000E+09	-3.41600035268E+01	-7.75622118751E+01	-9.82544213459E+00	-1.42269840622E+02	-9.80618555676E+00	-1.42235057581E+02	-2.66960542202E+01	1.30362074611E+01
4.88838900000E+09	-3.41596104331E+01	-7.72780131929E+01	-9.81505610151E+00	-1.42546651367E+02	-9.80251997727E+00	-1.42507483807E+02	-2.67017264366E+01	1.28218380062E+01
4.89638800000E+09	-3.41326656994E+01	-7.71786029465E+01	-9.81290345015E+00	-1.42833582130E+02	-9.79907404597E+00	-1.42776619105E+02	-2.67125132605E+01	1.27033087801E+01
4.90438700000E+09	-3.41204128449E+01	-7.69686497258E+01	-9.81092097849E+00	-1.43150162791E+02	-9.79972845007E+00	-1.43071000919E+02	-2.67032820946E+01	1.24718713298E+01
4.91238600000E+09	-3.41149304049E+01	-7.66340937521E+01	-9.81374666746E+00	-1.43444819399E+02	-9.80164960622E+00	-1.43353962366E+02	-2.67040168912E+01	1.21318789802E+01
4.92038500000E+09	-3.41337809356E+01	-7.67131694018E+01	-9.82258392238E+00	-1.43733422068E+02	-9.80891981461E+00	-1.43619556096E+02	-2.67052781698E+01	1.20584920904E+01
4.92838400000E+09	-3.41115941958E+01	-7.65082895519E+01	-9.83167930686E+00	-1.43997083837E+02	-9.81713653595E+00	-1.43850821533E+02	-2.67109169230E+01	1.18799612026E+01
4.93638300000E+09	-3.41152667826E+01	-7.63619014402E+01	-9.83975047154E+00	-1.44243506475E+02	-9.82325785229E+00	-1.44071441612E+02	-2.67041556847E+01	1.16353211719E+01
4.94438200000E+09	-3.41506265589E+01	-7.65923952592E+01	-9.85136633996E+00	-1.44447084857E+02	-9.83104306287E+00	-1.44273760190E+02	-2.66906586485E+01	1.14288876034E+01
4.95238100000E+09	-3.41982735602E+01	-7.63611734299E+01	-9.85735692613E+00	-1.44631877778E+02	-9.83362399445E+00	-1.44450481117E+02	-2.66666280982E+01	1.13567630080E+01
4.96038000000E+09	-3.42055042313E+01	-7.64145902714E+01	-9.86329395489E+00	-1.44806947295E+02	-9.83554128300E+00	-1.44633672439E+02	-2.66486655242E+01	1.11676222673E+01
4.96837900000E+09	-3.42192428107E+01	-7.60528259081E+01	-9.86238317399E+00	-1.44980029018E+02	-9.82914877367E+00	-1.44822985789E+02	-2.66309502804E+01	1.10023506221E+01
4.97637800000E+09	-3.42296003733E+01	-7.63860742258E+01	-9.86213320535E+00	-1.45154520270E+02	-9.82566466028E+00	-1.45012670608E+02	-2.66040927153E+01	1.08441433337E+01
4.98437700000E+09	-3.42742983312E+01	-7.65742835034E+01	-9.85386879959E+00	-1.45354244542E+02	-9.81466135284E+00	-1.45238502526E+02	-2.65931260157E+01	1.07701430432E+01
4.99237600000E+09	-3.42769165821E+01	-7.67451071018E+01	-9.84989334530E+00	-1.45553599759E+02	-9.80844457607E+00	-1.45488243104E+02	-2.65754223691E+01	1.06528665538E+01
5.00037500000E+09	-3.42526826581E+01	-7.67702326621E+01	-9.84102304375E+00	-1.45786204218E+02	-9.80170670538E+00	-1.45751101457E+02	-2.65560807000E+01	1.06019518237E+01
5.00837400000E+09	-3.42653568844E+01	-7.69456726739E+01	-9.83258750296E+00	-1.46038579137E+02	-9.79780107459E+00	-1.46029191176E+02	-2.65530744725E+01	1.05422114107E+01
5.01637300000E+09	-3.42621406266E+01	-7.72667056896E+01	-9.82799808087E+00	-1.46306021269E+02	-9.79832804407E+00	-1.46309085195E+02	-2.65510328898E+01	1.04777666594E+01
5.02437200000E+09	-3.42283046190E+01	-7.72318342311E+01	-9.82736208691E+00	-1.46569631977E+02	-9.80202983347E+00	-1.46577603943E+02	-2.65475210485E+01	1.04013422517E+01
5.03237100000E+09	-3.42262245095E+01	-7.72544574799E+01	-9.82646354648E+00	-1.46841105440E+02	-9.80762558261E+00	-1.46851829784E+02	-2.65443921630E+01	1.03491211638E+01
5.04037000000E+09	-3.41921283659E+01	-7.73022629428E+01	-9.82720345453E+00	-1.47108710425E+02	-9.81566441492E+00	-1.47085077810E+02	-2.65442034380E+01	1.03589307906E+01
5.04836900000E+09	-3.41880212749E+01	-7.73894146391E+01	-9.82848188844E+00	-1.47355604128E+02	-9.82077089479E+00	-1.47308577088E+02	-2.65476794683E+01	1.01782369708E+01
5.05636800000E+09	-3.41783138297E+01	-7.72094443727E+01	-9.83211624413E+00	-1.47598096476E+02	-9.82831800755E+00	-1.47515641207E+02	-2.65490253645E+01	1.01118472394E+01
5.06436700000E+09	-3.41737832119E+01	-7.72437740341E+01	-9.83373672781E+00	-1.47854672778E+02	-9.82798480419E+00	-1.47697437021E+02	-2.65486788333E+01	9.99747906135E+00
5.07236600000E+09	-3.41774423353E+01	-7.70929486708E+01	-9.83292180878E+00	-1.48080109171E+02	-9.82867750459E+00	-1.47905274964E+02	-2.65635261151E+01	9.91126926839E+00
5.08036500000E+09	-3.42007405910E+01	-7.70322836754E+01	-9.83568364132E+00	-1.48313390223E+02	-9.82571229676E+00	-1.48104115352E+02	-2.65613780073E+01	9.82193014436E+00
5.08836400000E+09	-3.41898941747E+01	-7.68928365789E+01	-9.83473523654E+00	-1.48555052344E+02	-9.81880224848E+00	-1.48318818765E+02	-2.65749862528E+01	9.59431070779E+00
5.09636300000E+09	-3.42308813479E+01	-7.67159160163E+01	-9.83918027297E+00	-1.48801785760E+02	-9.81174578387E+00	-1.48536236868E+02	-2.65819645423E+01	9.50523775789E+00
5.10436200000E+09	-3.42501898556E+01	-7.66886391167E+01	-9.84021560379E+00	-1.49031202726E+02	-9.81074847367E+00	-1.48809169528E+02	-2.65762963912E+01	9.30628826032E+00
5.11236100000E+09	-3.42745622053E+01	-7.66590710795E+01	-9.83919365994E+00	-1.49295931876E+02	-9.80005415013E+00	-1.49083789091E+02	-2.65728010703E+01	9.12937774234E+00
5.12036000000E+09	-3.42797166659E+01	-7.68206653019E+01	-9.84614039204E+00	-1.49534250216E+02	-9.80433546015E+00	-1.49357665373E+02	-2.65997333789E+01	8.87127704621E+00
5.12835900000E+09	-3.43312476745E+01	-7.69235951390E+01	-9.85143727678E+00	-1.49742076688E+02	-9.80381272914E+00	-1.49639826423E+02	-2.65972251827E+01	8.67139966575E+00
5.13635800000E+09	-3.43544522372E+01	-7.72852232611E+01	-9.85309240489E+00	-1.49967680222E+02	-9.80729552176E+00	-1.49877090285E+02	-2.65940267212E+01	8.40861106455E+00
5.14435700000E+09	-3.43840622884E+01	-7.75655436049E+01	-9.86139731626E+00	-1.50161784473E+02	-9.81849549854E+00	-1.50126905889E+02	-2.65927426722E+01	8.23050785093E+00
5.15235600000E+09	-3.43823361352E+01	-7.77739417140E+01	-9.86169865822E+00	-1.50376509155E+02	-9.82422107938E+00	-1.50346986551E+02	-2.65831418904E+01	8.03374135134E+00
5.16035500000E+09	-3.44105612250E+01	-7.80459945006E+01	-9.85850082638E+00	-1.50547908784E+02	-9.82781582626E+00	-1.50561549930E+02	-2.65598167294E+01	7.85105376994E+00
5.16835400000E+09	-3.44190606953E+01	-7.84047469579E+01	-9.85864558853E+00	-1.50741447435E+02	-9.83289699295E+00	-1.50759764824E+02	-2.65429235191E+01	7.65671703130E+00
5.17635300000E+09	-3.43778753148E+01	-7.83613352204E+01	-9.85084642673E+00	-1.50955918479E+02	-9.83054961291E+00	-1.50940448285E+02	-2.65215800420E+01	7.43014857184E+00
5.18435200000E+09	-3.43495292277E+01	-7.88465692784E+01	-9.84067186063E+00	-1.51160738551E+02	-9.82729720721E+00	-1.51145298062E+02	-2.65020161931E+01	7.18876014562E+00
5.19235100000E+09	-3.43373456040E+01	-7.89265766565E+01	-9.83101210956E+00	-1.51402020702E+02	-9.82123254644E+00	-1.51337224747E+02	-2.64671318905E+01	7.01486978139E+00
5.20035000000E+09	-3.42996623890E+01	-7.88826813882E+01	-9.82813695921E+00	-1.51667289324E+02	-9.81617077727E+00	-1.51577589762E+02	-2.64434920480E+01	6.85194804173E+00
5.20834900000E+09	-3.42467587184E+01	-7.91119425003E+01	-9.82024689557E+00	-1.51948207954E+02	-9.80780472484E+00	-1.51834178387E+02	-2.64210776749E+01	6.82547282457E+00
5.21634800000E+09	-3.42054015633E+01	-7.90595225418E+01	-9.81764596728E+00	-1.52241399233E+02	-9.80268806318E+00	-1.52096029536E+02	-2.63782905152E+01	6.75389169548E+00
5.22434700000E+09	-3.41750002673E+01	-7.90277795028E+01	-9.82298936449E+00	-1.52542353120E+02	-9.80127547681E+00	-1.52377674873E+02	-2.63604267349E+01	6.67855623038E+00
5.23234600000E+09	-3.41541993955E+01	-7.88407850332E+01	-9.82350450817E+00	-1.52825857478E+02	-9.79960783864E+00	-1.52660925625E+02	-2.63396800682E+01	6.65879786694E+00
5.24034500000E+09	-3.41255391655E+01	-7.87341722608E+01	-9.83168941112E+00	-1.53098079202E+02	-9.80416647328E+00	-1.52920682176E+02	-2.63100065106E+01	6.68095747236E+00
5.24834400000E+09	-3.41067805811E+01	-7.83183136799E+01	-9.84167858072E+00	-1.53372421409E+02	-9.81261068968E+00	-1.53182171449E+02	-2.63078972749E+01	6.82446547010E+00
5.25634300000E+09	-3.41208470653E+01	-7.82618317804E+01	-9.84634992409E+00	-1.53599870958E+02	-9.81569512295E+00	-1.53415774872E+02	-2.63026081158E+01	6.91588698716E+00
5.26434200000E+09	-3.41320230040E+01	-7.79502351935E+01	-9.85709093535E+00	-1.53809072398E+02	-9.82443956108E+00	-1.53642792235E+02	-2.63036288657E+01	7.09394908535E+00
5.27234100000E+09	-3.41464603442E+01	-7.76945322124E+01	-9.86270217499E+00	-1.54001934277E+02	-9.82786947601E+00	-1.53852465561E+02	-2.62963600059E+01	7.16620353001E+00
5.28034000000E+09	-3.42054034413E+01	-7.75860007291E+01	-9.86249909557E+00	-1.54197507740E+02	-9.82928129384E+00	-1.54043985084E+02	-2.63208564813E+01	7.27483699016E+00
5.28833900000E+09	-3.42246887721E+01	-7.73888086656E+01	-9.86377297319E+00	-1.54392189510E+02	-9.82749438491E+00	-1.54233500464E+02	-2.63257462299E+01	7.36865423182E+00
5.29633800000E+09	-3.42631178353E+01	-7.72365230506E+01	-9.86113082065E+00	-1.54574275016E+02	-9.82546852324E+00	-1.54454449068E+02	-2.63686940907E+01	7.39151836341E+00
5.30433700000E+09	-3.42962419883E+01	-7.75675888983E+01	-9.85761922545E+00	-1.54798773901E+02	-9.82029160943E+00	-1.54671443085E+02	-2.63874202650E+01	7.34920432974E+00
5.31233600000E+09	-3.43046492211E+01	-7.73278686260E+01	-9.85398433919E+00	-1.55026410302E+02	-9.81572725261E+00	-1.54910042959E+02	-2.64198287585E+01	7.20881840085E+00
5.32033500000E+09	-3.43935955535E+01	-7.72606938346E+01	-9.85146820689E+00	-1.55254764410E+02	-9.80954431769E+00	-1.55163293901E+02	-2.64638819188E+01	7.17032561883E+00
5.32833400000E+09	-3.44094177543E+01	-7.73838403384E+01	-9.84880356709E+00	-1.55498690581E+02	-9.80903881048E+00	-1.55417128325E+02	-2.64997185171E+01	6.91544766345E+00
5.33633300000E+09	-3.44253996528E+01	-7.76680885543E+01	-9.84935214691E+00	-1.55746305617E+02	-9.80947970731E+00	-1.55692404645E+02	-2.65183819076E+01	6.77109919432E+00
5.34433200000E+09	-3.44829460038E+01	-7.77131605090E+01	-9.84723855052E+00	-1.55981595278E+02	-9.80962815294E+00	-1.55956608137E+02	-2.65499859697E+01	6.45896732878E+00
5.35233100000E+09	-3.44885114276E+01	-7.80732937613E+01	-9.85138035612E+00	-1.56227352494E+02	-9.81404486074E+00	-1.56209166656E+02	-2.65662566853E+01	6.20105670009E+00
5.36033000000E+09	-3.45213237506E+01	-7.82287049857E+01	-9.85224004890E+00	-1.56458168620E+02	-9.82045054532E+00	-1.56458214128E+02	-2.65749812332E+01	5.89763642240E+00
5.36832900000E+09	-3.45204852167E+01	-7.84060180011E+01	-9.85220589456E+00	-1.56672821630E+02	-9.82559885417E+00	-1.56666317055E+02	-2.65797126713E+01	5.60104300664E+00
5.37632800000E+09	-3.45418515242E+01	-7.85778417570E+01	-9.85185392062E+00	-1.56895111548E+02	-9.83329883886E+00	-1.56865780778E+02	-2.65636196478E+01	5.22525310339E+00
5.38432700000E+09	-3.45056035025E+01	-7.86023468593E+01	-9.85093254883E+00	-1.57122067251E+02	-9.83170488713E+00	-1.57055397993E+02	-2.65566483773E+01	4.96590752493E+00
5.39232600000E+09	-3.45271031315E+01	-7.87828985185E+01	-9.84938332302E+00	-1.57341701175E+02	-9.82781287886E+00	-1.57259933993E+02	-2.65416571280E+01	4.71183984915E+00
5.40032500000E+09	-3.45176638616E+01	-7.88331754308E+01	-9.84552664979E+00	-1.57583206224E+02	-9.82377217627E+00	-1.57481085025E+02	-2.65167182956E+01	4.43801707781E+00
5.40832400000E+09	-3.45369192368E+01	-7.88926035712E+01	-9.84469555396E+00	-1.57829019238E+02	-9.81629622273E+00	-1.57708512582E+02	-2.64887942512E+01	4.23404730909E+00
5.41632300000E+09	-3.45681378944E+01	-7.89101883869E+01	-9.84194302795E+00	-1.58116671433E+02	-9.81175548349E+00	-1.57939769612E+02	-2.64697705043E+01	4.14555810803E+00
5.42432200000E+09	-3.45509005323E+01	-7.87552469379E+01	-9.84108563593E+00	-1.58381147283E+02	-9.80532795975E+00	-1.58216314192E+02	-2.64459704240E+01	4.05423414563E+00
5.43232100000E+09	-3.45472495619E+01	-7.89337525179E+01	-9.84344398447E+00	-1.58641486637E+02	-9.80372440319E+00	-1.58499279470E+02	-2.64291971362E+01	3.96710439086E+00
5.44032000000E+09	-3.45883997857E+01	-7.92420618644E+01	-9.85106320595E+00	-1.58901325954E+02	-9.80674987101E+00	-1.58783065677E+02	-2.64090586993E+01	3.95915950275E+00
5.44831900000E+09	-3.46248988692E+01	-7.93526545790E+01	-9.85809061927E+00	-1.59154094218E+02	-9.80987334934E+00	-1.59072443711E+02	-2.64135274698E+01	4.02625428164E+00
5.45631800000E+09	-3.46407955720E+01	-7.94839907554E+01	-9.86486546824E+00	-1.59365205460E+02	-9.81661640997E+00	-1.59328061758E+02	-2.64109006632E+01	3.99726374599E+00
5.46431700000E+09	-3.46685511247E+01	-7.95966284250E+01	-9.87044385666E+00	-1.59563034819E+02	-9.82643532007E+00	-1.59559515634E+02	-2.64226966187E+01	3.99451498633E+00
5.47231600000E+09	-3.46745749856E+01	-7.96665109059E+01	-9.87490034485E+00	-1.59749037545E+02	-9.83567862696E+00	-1.59776011228E+02	-2.64286449367E+01	4.01223044982E+00
5.48031500000E+09	-3.47082564964E+01	-7.99513459603E+01	-9.87525744609E+00	-1.59923560396E+02	-9.84316345710E+00	-1.59976547458E+02	-2.64422968193E+01	3.97080548009E+00
5.48831400000E+09	-3.46822846783E+01	-8.01534321585E+01	-9.87152261420E+00	-1.60094719173E+02	-9.84786562628E+00	-1.60136867901E+02	-2.64552475821E+01	4.00137002409E+00
5.49631300000E+09	-3.46870021234E+01	-8.04604146172E+01	-9.86345096020E+00	-1.60301809727E+02	-9.84820706789E+00	-1.60310313892E+02	-2.64741028465E+01	3.79329966484E+00
5.50431200000E+09	-3.47116607440E+01	-8.05812859931E+01	-9.85708605953E+00	-1.60498339836E+02	-9.84418783291E+00	-1.60473687240E+02	-2.64934501195E+01	3.62076444000E+00
5.51231100000E+09	-3.46938884497E+01	-8.08465129196E+01	-9.84893119521E+00	-1.60738398930E+02	-9.83736804061E+00	-1.60662045398E+02	-2.65126151977E+01	3.38834903320E+00
5.52031000000E+09	-3.46535935223E+01	-8.10328741068E+01	-9.83953608658E+00	-1.60991913232E+02	-9.82664346193E+00	-1.60879751321E+02	-2.65299743836E+01	3.15119647391E+00
5.52830900000E+09	-3.46308718064E+01	-8.11635281878E+01	-9.82986864496E+00	-1.61278491607E+02	-9.81507361978E+00	-1.61107190360E+02	-2.65495269007E+01	2.89484546461E+00
5.53630800000E+09	-3.45964522799E+01	-8.14468393068E+01	-9.82837706263E+00	-1.61567098660E+02	-9.80495387163E+00	-1.61369209677E+02	-2.65647128666E+01	2.72147640004E+00
5.54430700000E+09	-3.45840738727E+01	-8.14284677092E+01	-9.82993364044E+00	-1.61851387871E+02	-9.79648946742E+00	-1.61663489512E+02	-2.65655130822E+01	2.35213462560E+00
5.55230600000E+09	-3.45595177713E+01	-8.16147725827E+01	-9.83538113164E+00	-1.62153510878E+02	-9.79312604135E+00	-1.61976552944E+02	-2.65607677954E+01	2.08160674563E+00
5.56030500000E+09	-3.45047694424E+01	-8.15430658562E+01	-9.84330616219E+00	-1.62409073593E+02	-9.79650340106E+00	-1.62287444886E+02	-2.65509223635E+01	1.82458458002E+00
5.56830400000E+09	-3.44930281651E+01	-8.17088461113E+01	-9.85074302051E+00	-1.62654157648E+02	-9.80069580738E+00	-1.62573974260E+02	-2.65539302316E+01	1.45002464869E+00
5.57630300000E+09	-3.44503306407E+01	-8.18208533469E+01	-9.85866565268E+00	-1.62891006894E+02	-9.81029283684E+00	-1.62842333996E+02	-2.65315281678E+01	1.34018686394E+00
5.58430200000E+09	-3.44723494703E+01	-8.18000896532E+01	-9.86389595134E+00	-1.63087447302E+02	-9.81930363829E+00	-1.63100481876E+02	-2.65156805792E+01	1.21400648392E+00
5.59230100000E+09	-3.44622225353E+01	-8.15931652481E+01	-9.86745128905E+00	-1.63281675388E+02	-9.82893832934E+00	-1.63310621314E+02	-2.64979595382E+01	1.06670926019E+00
5.60030000000E+09	-3.44715853693E+01	-8.15245918044E+01	-9.86704919392E+00	-1.63466694769E+02	-9.83825212956E+00	-1.63492451530E+02	-2.64804018870E+01	8.46527081557E-01
5.60829900000E+09	-3.44601762494E+01	-8.12242848948E+01	-9.86286968423E+00	-1.63666481658E+02	-9.84075297932E+00	-1.63683614128E+02	-2.64528979540E+01	7.49949275191E-01
5.61629800000E+09	-3.44699190822E+01	-8.12145199873E+01	-9.85724678755E+00	-1.63878063040E+02	-9.83981954552E+00	-1.63865274608E+02	-2.64426425400E+01	6.42388680767E-01
5.62429700000E+09	-3.44601076700E+01	-8.12298390443E+01	-9.85076649387E+00	-1.64127543619E+02	-9.83680684741E+00	-1.64058963114E+02	-2.64249509302E+01	4.88912765445E-01
5.63229600000E+09	-3.44546268132E+01	-8.11436698672E+01	-9.84806197921E+00	-1.64383482884E+02	-9.83260634852E+00	-1.64250496333E+02	-2.64211235968E+01	4.44803860582E-01
5.64029500000E+09	-3.44401685843E+01	-8.12570440570E+01	-9.84376021798E+00	-1.64651834874E+02	-9.82670560351E+00	-1.64468768957E+02	-2.64130985332E+01	3.93073707575E-01
5.64829400000E+09	-3.44312619306E+01	-8.11366959611E+01	-9.84477179062E+00	-1.64923080455E+02	-9.82051283344E+00	-1.64723382048E+02	-2.64116696821E+01	2.62598659298E-01
5.65629300000E+09	-3.44076437848E+01	-8.09493164792E+01	-9.85168934318E+00	-1.65188459543E+02	-9.81859220347E+00	-1.64985415302E+02	-2.64096514333E+01	2.26946960899E-01
5.66429200000E+09	-3.44104060357E+01	-8.10075305091E+01	-9.85533358293E+00	-1.65452061837E+02	-9.81683643969E+00	-1.65238994481E+02	-2.64084002731E+01	1.19562081258E-01
5.67229100000E+09	-3.43904372771E+01	-8.06837610076E+01	-9.86475023110E+00	-1.65689510254E+02	-9.81698755311E+00	-1.65512592689E+02	-2.64112241734E+01	-3.63056408595E-02
5.68029000000E+09	-3.43776378438E+01	-8.08129485878E+01	-9.87190173824E+00	-1.65895870823E+02	-9.81973000821E+00	-1.65742814394E+02	-2.64195610991E+01	-1.89013348910E-01
5.68828900000E+09	-3.43673660254E+01	-8.04102479537E+01	-9.87879869975E+00	-1.66101107236E+02	-9.82668823025E+00	-1.65972010149E+02	-2.64126834319E+01	-3.71988279715E-01
5.69628800000E+09	-3.43671339385E+01	-8.03679575715E+01	-9.87792981572E+00	-1.66251567806E+02	-9.82436068559E+00	-1.66215811136E+02	-2.64142788658E+01	-4.37240194776E-01
5.70428700000E+09	-3.43665416084E+01	-8.01621314714E+01	-9.87585964284E+00	-1.66431744577E+02	-9.82558221842E+00	-1.66414043085E+02	-2.64064353744E+01	-6.50715415834E-01
5.71228600000E+09	-3.43738360335E+01	-7.97800459190E+01	-9.87017732557E+00	-1.66602361611E+02	-9.82183333846E+00	-1.66619327353E+02	-2.64041419830E+01	-7.77473947979E-01
5.72028500000E+09	-3.44212450199E+01	-7.95525034493E+01	-9.85933772522E+00	-1.66817993541E+02	-9.82853856352E+00	-1.66839563836E+02	-2.63970735574E+01	-9.12308243542E-01
5.72828400000E+09	-3.44373190139E+01	-7.93991347173E+01	-9.85052639938E+00	-1.67039545873E+02	-9.81969319938E+00	-1.67066603772E+02	-2.63846879624E+01	-1.09312480780E+00
5.73628300000E+09	-3.44562576910E+01	-7.90551093859E+01	-9.83840227913E+00	-1.67311583595E+02	-9.80552124995E+00	-1.67307365308E+02	-2.63916371222E+01	-1.19083105653E+00
5.74428200000E+09	-3.45010118310E+01	-7.88185421302E+01	-9.83255915361E+00	-1.67602700105E+02	-9.80077172663E+00	-1.67576893053E+02	-2.63777558415E+01	-1.32369836164E+00
5.75228100000E+09	-3.45424494416E+01	-7.87022638040E+01	-9.82350642047E+00	-1.67917867492E+02	-9.81260504016E+00	-1.67875192011E+02	-2.63766433782E+01	-1.40101516452E+00
5.76028000000E+09	-3.46172926975E+01	-7.85732638827E+01	-9.82788074247E+00	-1.68262297565E+02	-9.81035770791E+00	-1.68158355603E+02	-2.63669314644E+01	-1.48911466558E+00
5.76827900000E+09	-3.46411640947E+01	-7.85662761038E+01	-9.83791543949E+00	-1.68546222126E+02	-9.79953664474E+00	-1.68449593110E+02	-2.63630849010E+01	-1.57722183606E+00
5.77627800000E+09	-3.46879847114E+01	-7.87031562604E+01	-9.84902096059E+00	-1.68859687477E+02	-9.80945089339E+00	-1.68730877061E+02	-2.63681791711E+01	-1.63079796773E+00
5.78427700000E+09	-3.47672842100E+01	-7.88182770557E+01	-9.85894488422E+00	-1.69095579163E+02	-9.83559134580E+00	-1.68984138677E+02	-2.63689735675E+01	-1.74216182779E+00
5.79227600000E+09	-3.48345306267E+01	-7.89620174107E+01	-9.87336733498E+00	-1.69320630663E+02	-9.84906993959E+00	-1.69202476229E+02	-2.63624835419E+01	-1.81231539113E+00
5.80027500000E+09	-3.48901927762E+01	-7.89607646396E+01	-9.89077622228E+00	-1.69495448937E+02	-9.84534162298E+00	-1.69392119968E+02	-2.63606750092E+01	-1.79248362525E+00
5.80827400000E+09	-3.49315021971E+01	-7.91703210354E+01	-9.89776688650E+00	-1.69662931091E+02	-9.85934081778E+00	-1.69554593575E+02	-2.63435008336E+01	-1.93692862752E+00
5.81627300000E+09	-3.49416132275E+01	-7.92191339103E+01	-9.89556829309E+00	-1.69799732851E+02	-9.86332868228E+00	-1.69696056623E+02	-2.63473636002E+01	-2.11910151933E+00
5.82427200000E+09	-3.49425351182E+01	-7.95321281300E+01	-9.89279000930E+00	-1.69936367655E+02	-9.85952152417E+00	-1.69860355904E+02	-2.63399470840E+01	-2.33265377915E+00
5.83227100000E+09	-3.49250099915E+01	-7.97993672956E+01	-9.89047688230E+00	-1.70102670523E+02	-9.85032910328E+00	-1.70003120081E+02	-2.63347307921E+01	-2.51556767352E+00
5.84027000000E+09	-3.49193909100E+01	-7.98652538554E+01	-9.87514838130E+00	-1.70269910694E+02	-9.84292134505E+00	-1.70183186499E+02	-2.63373360758E+01	-2.67862974364E+00
5.84826900000E+09	-3.49225114237E+01	-8.00140445548E+01	-9.86092848107E+00	-1.70486578381E+02	-9.82398375407E+00	-1.70407421147E+02	-2.63354678540E+01	-2.87469096903E+00
5.85626800000E+09	-3.49618502961E+01	-8.00251464603E+01	-9.84635680733E+00	-1.70751473287E+02	-9.80883318244E+00	-1.70675673305E+02	-2.63311240203E+01	-2.94492092202E+00
5.86426700000E+09	-3.49216065846E+01	-7.98330756187E+01	-9.83712967271E+00	-1.71042496767E+02	-9.79504065574E+00	-1.70957253187E+02	-2.63382502305E+01	-3.03441898957E+00
5.87226600000E+09	-3.49135530761E+01	-7.98393444300E+01	-9.83296381526E+00	-1.71355376900E+02	-9.78222262984E+00	-1.71291290407E+02	-2.63198321290E+01	-3.17104236300E+00
5.88026500000E+09	-3.49042102143E+01	-7.95797887170E+01	-9.83233724640E+00	-1.71666157917E+02	-9.78280035918E+00	-1.71629406201E+02	-2.63183788469E+01	-3.24803928860E+00
5.88826400000E+09	-3.49552086345E+01	-7.96794493717E+01	-9.84238052694E+00	-1.71964472409E+02	-9.79634551051E+00	-1.71964228340E+02	-2.63094690051E+01	-3.40652304597E+00
5.89626300000E+09	-3.49677057343E+01	-7.96448303326E+01	-9.84801811063E+00	-1.72238644444E+02	-9.80645677692E+00	-1.72270365182E+02	-2.63023186096E+01	-3.45741463491E+00
5.90426200000E+09	-3.49904607568E+01	-7.95985164997E+01	-9.85728273922E+00	-1.72504855497E+02	-9.81283292098E+00	-1.72543650547E+02	-2.63148925851E+01	-3.44509588839E+00
5.91226100000E+09	-3.50658255567E+01	-7.95081416688E+01	-9.86267726184E+00	-1.72730419122E+02	-9.83422759167E+00	-1.72797686768E+02	-2.63083882951E+01	-3.48596066027E+00
5.92026000000E+09	-3.51110362003E+01	-7.92334116274E+01	-9.86678971405E+00	-1.72950087347E+02	-9.84459366647E+00	-1.72972709050E+02	-2.63073168234E+01	-3.45598208096E+00
5.92825900000E+09	-3.51612274447E+01	-7.91126119325E+01	-9.87396458380E+00	-1.73130726471E+02	-9.86478407875E+00	-1.73131429749E+02	-2.63049470286E+01	-3.54180118245E+00
5.93625800000E+09	-3.52292152835E+01	-7.90793754150E+01	-9.87521731114E+00	-1.73329947220E+02	-9.85777458989E+00	-1.73289935015E+02	-2.63017234187E+01	-3.57194448056E+00
5.94425700000E+09	-3.52601135137E+01	-7.91629118136E+01	-9.87235456989E+00	-1.73522545537E+02	-9.85784886882E+00	-1.73426228249E+02	-2.63100675273E+01	-3.69332068031E+00
5.95225600000E+09	-3.53001742253E+01	-7.93161210265E+01	-9.86642205051E+00	-1.73734571403E+02	-9.84883340383E+00	-1.73587765231E+02	-2.63224306759E+01	-3.83094568065E+00
5.96025500000E+09	-3.53366651524E+01	-7.94125679615E+01	-9.86536366718E+00	-1.73966691499E+02	-9.85341170074E+00	-1.73758618410E+02	-2.63373722129E+01	-4.00814393536E+00
5.96825400000E+09	-3.53888301524E+01	-7.98747749891E+01	-9.86119862194E+00	-1.74212670733E+02	-9.83993754777E+00	-1.73968161542E+02	-2.63531893647E+01	-4.19978218974E+00
5.97625300000E+09	-3.53975836478E+01	-8.01781098381E+01	-9.85806272832E+00	-1.74470125413E+02	-9.81854892997E+00	-1.74209505941E+02	-2.63741899683E+01	-4.32070285332E+00
5.98425200000E+09	-3.53998917396E+01	-8.04525829878E+01	-9.86136690624E+00	-1.74736055254E+02	-9.81541862014E+00	-1.74500999552E+02	-2.63780932272E+01	-4.58766238080E+00
5.99225100000E+09	-3.54134934033E+01	-8.07058892102E+01	-9.86509169173E+00	-1.74993756260E+02	-9.81053797621E+00	-1.74783212864E+02	-2.63734168034E+01	-4.75861032992E+00
6.00025000000E+09	-3.53988473907E+01	-8.10736538418E+01	-9.87281264731E+00	-1.75226187754E+02	-9.80432964474E+00	-1.75079590222E+02	-2.63839977802E+01	-5.06604160770E+00
6.00824900000E+09	-3.54249809565E+01	-8.10922249118E+01	-9.87459931300E+00	-1.75449922824E+02	-9.80931419720E+00	-1.75367850660E+02	-2.63734849204E+01	-5.22196058360E+00
6.01624800000E+09	-3.53894583704E+01	-8.11326800630E+01	-9.88146880724E+00	-1.75636896264E+02	-9.81294531250E+00	-1.75652108868E+02	-2.63712493372E+01	-5.41105597260E+00
6.02424700000E+09	-3.53818545760E+01	-8.13464883045E+01	-9.88167260697E+00	-1.75828968947E+02	-9.81991641000E+00	-1.75902191587E+02	-2.63662007220E+01	-5.55753715156E+00
6.03224600000E+09	-3.53749536060E+01	-8.14358156620E+01	-9.87985668743E+00	-1.75998844612E+02	-9.82791998683E+00	-1.76137186000E+02	-2.63535258457E+01	-5.73174673929E+00
6.04024500000E+09	-3.53552769333E+01	-8.13420061502E+01	-9.87104068683E+00	-1.76203720230E+02	-9.83334742694E+00	-1.76346542868E+02	-2.63300968358E+01	-5.97325757434E+00
6.04824400000E+09	-3.53600175176E+01	-8.08949204030E+01	-9.86326261801E+00	-1.76401219449E+02	-9.83742124219E+00	-1.76552125095E+02	-2.63138061653E+01	-6.09289054004E+00
6.05624300000E+09	-3.53386138391E+01	-8.08214002885E+01	-9.85214141851E+00	-1.76651729741E+02	-9.83651960975E+00	-1.76748145365E+02	-2.63181191967E+01	-6.14926702396E+00
6.06424200000E+09	-3.53724290697E+01	-8.07021224410E+01	-9.84318892855E+00	-1.76930585212E+02	-9.83447483350E+00	-1.76970922492E+02	-2.63053849341E+01	-6.18959629469E+00
6.07224100000E+09	-3.54090978611E+01	-8.04986025101E+01	-9.83482332067E+00	-1.77208562223E+02	-9.82955248994E+00	-1.77197085829E+02	-2.62865204615E+01	-6.29693607004E+00
6.08024000000E+09	-3.54024022896E+01	-8.04513633204E+01	-9.82999293852E+00	-1.77553579779E+02	-9.82377230527E+00	-1.77420292182E+02	-2.62965009407E+01	-6.33436147813E+00
6.08823900000E+09	-3.54309193296E+01	-8.02883714043E+01	-9.83365546706E+00	-1.77882880231E+02	-9.81820185949E+00	-1.77671305091E+02	-2.62808737029E+01	-6.36740378890E+00
6.09623800000E+09	-3.54544625379E+01	-8.01922642508E+01	-9.84395482623E+00	-1.78184902008E+02	-9.82087486527E+00	-1.77946160995E+02	-2.62933096119E+01	-6.40294229517E+00
6.10423700000E+09	-3.54835773443E+01	-8.03101515905E+01	-9.85644208832E+00	-1.78476149815E+02	-9.82145671677E+00	-1.78217692648E+02	-2.62992563562E+01	-6.46389628367E+00
6.11223600000E+09	-3.55332182434E+01	-8.04503305406E+01	-9.87179881970E+00	-1.78731022110E+02	-9.82431335809E+00	-1.78480859485E+02	-2.63181230882E+01	-6.57703903479E+00
6.12023500000E+09	-3.55821373680E+01	-8.05216645931E+01	-9.88698440688E+00	-1.78939018286E+02	-9.83080958922E+00	-1.78713489551E+02	-2.63153162075E+01	-6.58634019540E+00
6.12823400000E+09	-3.56233760176E+01	-8.04531195835E+01	-9.90336790733E+00	-1.79116461375E+02	-9.83967260240E+00	-1.78950643457E+02	-2.63295730724E+01	-6.82764215694E+00
6.13623300000E+09	-3.56477030814E+01	-8.07623051527E+01	-9.91144400417E+00	-1.79237637803E+02	-9.84484390927E+00	-1.79157079478E+02	-2.63411660093E+01	-6.94994752121E+00
6.14423200000E+09	-3.56388001126E+01	-8.08682251351E+01	-9.91092970612E+00	-1.79360485585E+02	-9.84686000147E+00	-1.79341300100E+02	-2.63413200595E+01	-7.14244073895E+00
6.15223100000E+09	-3.56253798644E+01	-8.10336244920E+01	-9.90645031836E+00	-1.79491041209E+02	-9.84596632654E+00	-1.79508116583E+02	-2.63496506537E+01	-7.46255293287E+00
6.16023000000E+09	-3.55907296750E+01	-8.10262844768E+01	-9.89617963857E+00	-1.79635125242E+02	-9.84475439082E+00	-1.79696782110E+02	-2.63595245245E+01	-7.71261201995E+00
6.16822900000E+09	-3.56451529651E+01	-8.11462188513E+01	-9.88215107840E+00	-1.79822030174E+02	-9.83516211859E+00	-1.79885821744E+02	-2.63636416599E+01	-8.00893161276E+00
6.17622800000E+09	-3.56043402920E+01	-8.12575077996E+01	-9.86566262836E+00	1.79959581965E+02	-9.82637626491E+00	1.79885717295E+02	-2.63579637359E+01	-8.20521183687E+00
6.18422700000E+09	-3.55867923874E+01	-8.10205230644E+01	-9.84935217409E+00	1.79690868010E+02	-9.81539793884E+00	1.79628752314E+02	-2.63560672577E+01	-8.39081176740E+00
6.19222600000E+09	-3.55762567507E+01	-8.10466997202E+01	-9.83822072554E+00	1.79391004898E+02	-9.80784536005E+00	1.79351979002E+02	-2.63459157227E+01	-8.59863409040E+00
6.20022500000E+09	-3.55551374250E+01	-8.05715414233E+01	-9.82940428441E+00	1.79047054791E+02	-9.80598930307E+00	1.79047186572E+02	-2.63293228605E+01	-8.83031207891E+00
6.20822400000E+09	-3.55473484030E+01	-8.03441152494E+01	-9.83050679582E+00	1.78710193585E+02	-9.80286795008E+00	1.78746297062E+02	-2.63147596608E+01	-9.01585483253E+00
6.21622300000E+09	-3.55489457247E+01	-8.01621769273E+01	-9.83464298186E+00	1.78368853772E+02	-9.80766383166E+00	1.78417003556E+02	-2.62937288986E+01	-9.15116583409E+00
6.22422200000E+09	-3.55536719523E+01	-7.98433819817E+01	-9.84546335693E+00	1.78090765427E+02	-9.81997174450E+00	1.78148186987E+02	-2.62881065128E+01	-9.22307243379E+00
6.23222100000E+09	-3.56212162514E+01	-7.96983818201E+01	-9.86095091105E+00	1.77788288452E+02	-9.83007004819E+00	1.77893842856E+02	-2.62853584896E+01	-9.33299561385E+00
6.24022000000E+09	-3.56892416872E+01	-7.92617433599E+01	-9.87330100471E+00	1.77568063632E+02	-9.84230686094E+00	1.77688086080E+02	-2.62606798802E+01	-9.37532987578E+00
6.24821900000E+09	-3.57106053420E+01	-7.89422223618E+01	-9.88771715145E+00	1.77374058756E+02	-9.85011380632E+00	1.77499929447E+02	-2.62497702305E+01	-9.43858287088E+00
6.25621800000E+09	-3.57527042014E+01	-7.86622308851E+01	-9.89511067395E+00	1.77208722846E+02	-9.85589024112E+00	1.77332707348E+02	-2.62415152207E+01	-9.59905443412E+00
6.26421700000E+09	-3.58418134738E+01	-7.83836130302E+01	-9.89781590932E+00	1.77040551691E+02	-9.85701372619E+00	1.77180163348E+02	-2.62373483210E+01	-9.59676483289E+00
6.27221600000E+09	-3.58926586313E+01	-7.81994657006E+01	-9.89374592675E+00	1.76868836068E+02	-9.85188628332E+00	1.77004077962E+02	-2.62341988982E+01	-9.83312036882E+00
6.28021500000E+09	-3.59127002668E+01	-7.84754275729E+01	-9.88771754131E+00	1.76709115190E+02	-9.84346489759E+00	1.76840879056E+02	-2.62337728185E+01	-9.97779681376E+00
6.28821400000E+09	-3.59862547332E+01	-7.83541837288E+01	-9.88410490328E+00	1.76490913040E+02	-9.83356430641E+00	1.76611880389E+02	-2.62496826380E+01	-1.01264340289E+01
6.29621300000E+09	-3.60555586392E+01	-7.87232211434E+01	-9.87544472766E+00	1.76250174722E+02	-9.81952657799E+00	1.76343739693E+02	-2.62390416565E+01	-1.02447601444E+01
6.30421200000E+09	-3.61037956628E+01	-7.87774137411E+01	-9.86688984849E+00	1.75997382060E+02	-9.80757071340E+00	1.76059053302E+02	-2.62399525893E+01	-1.03598579286E+01
6.31221100000E+09	-3.61287243968E+01	-7.90138861904E+01	-9.86266622202E+00	1.75726170174E+02	-9.80658630530E+00	1.75771863651E+02	-2.62330954759E+01	-1.05592819671E+01
6.32021000000E+09	-3.61544556973E+01	-7.91634150434E+01	-9.86817162626E+00	1.75451213672E+02	-9.80629098902E+00	1.75461435054E+02	-2.62328283680E+01	-1.07448412894E+01
6.32820900000E+09	-3.62254769503E+01	-7.96173915773E+01	-9.87159848669E+00	1.75179537650E+02	-9.80696919213E+00	1.75172264025E+02	-2.62332871891E+01	-1.09499206400E+01
6.33620800000E+09	-3.62077523447E+01	-7.92928343810E+01	-9.87115409903E+00	1.74935126074E+02	-9.82369064429E+00	1.74871600274E+02	-2.62326396319E+01	-1.10431535417E+01
6.34420700000E+09	-3.62106733411E+01	-7.94764449804E+01	-9.88091597127E+00	1.74698890341E+02	-9.83214847632E+00	1.74619819452E+02	-2.62033532999E+01	-1.11612933340E+01
6.35220600000E+09	-3.62296829203E+01	-7.92626166115E+01	-9.88408619924E+00	1.74505673919E+02	-9.84590402029E+00	1.74379342466E+02	-2.61858056465E+01	-1.13353288041E+01
6.36020500000E+09	-3.62115342326E+01	-7.92387810430E+01	-9.87976359339E+00	1.74282807188E+02	-9.85615539781E+00	1.74218322498E+02	-2.61727178554E+01	-1.14704109778E+01
6.36820400000E+09	-3.61893667863E+01	-7.91552240752E+01	-9.87954138402E+00	1.74093018121E+02	-9.85911485046E+00	1.74074404489E+02	-2.61577615348E+01	-1.15942124399E+01
6.37620300000E+09	-3.61982630803E+01	-7.90903166154E+01	-9.88005247442E+00	1.73864837810E+02	-9.85646882565E+00	1.73891655894E+02	-2.61479382621E+01	-1.17121796351E+01
6.38420200000E+09	-3.62338939756E+01	-7.87638647686E+01	-9.87065188601E+00	1.73657779358E+02	-9.85086436761E+00	1.73726431734E+02	-2.61416705547E+01	-1.18381380531E+01
6.39220100000E+09	-3.62487289368E+01	-7.84964782371E+01	-9.86433020765E+00	1.73417497058E+02	-9.84842419170E+00	1.73524528599E+02	-2.61313096014E+01	-1.18556258050E+01
6.40020000000E+09	-3.62509200683E+01	-7.84865916844E+01	-9.86428115938E+00	1.73137362602E+02	-9.82943210521E+00	1.73307799093E+02	-2.61322776190E+01	-1.19622924729E+01
6.40819900000E+09	-3.63058078895E+01	-7.83614294848E+01	-9.85949770757E+00	1.72872327270E+02	-9.81747146559E+00	1.73067243051E+02	-2.61401600440E+01	-1.20836503523E+01
6.41619800000E+09	-3.63494625929E+01	-7.79500814603E+01	-9.85472142062E+00	1.72564736637E+02	-9.81085077743E+00	1.72779110342E+02	-2.61409840089E+01	-1.21174684923E+01
6.42419700000E+09	-3.64001032513E+01	-7.76676790429E+01	-9.86243011920E+00	1.72287283350E+02	-9.80628366923E+00	1.72479179549E+02	-2.61498295889E+01	-1.21907834605E+01
6.43219600000E+09	-3.64599681115E+01	-7.77168195085E+01	-9.87489193651E+00	1.72015023986E+02	-9.80103986190E+00	1.72145918360E+02	-2.61660513228E+01	-1.23953890990E+01
6.44019500000E+09	-3.65475188718E+01	-7.80443888901E+01	-9.88308813549E+00	1.71780596577E+02	-9.80807285590E+00	1.71848693900E+02	-2.61677073404E+01	-1.24686331386E+01
6.44819400000E+09	-3.66228572963E+01	-7.79492819282E+01	-9.89159216060E+00	1.71552263403E+02	-9.82041332082E+00	1.71539740833E+02	-2.61692912780E+01	-1.26138086976E+01
6.45619300000E+09	-3.67510653171E+01	-7.77607858183E+01	-9.90546667740E+00	1.71369151920E+02	-9.82645514772E+00	1.71282875012E+02	-2.61741412277E+01	-1.28706199784E+01
6.46419200000E+09	-3.67228799836E+01	-7.78761950555E+01	-9.90242668157E+00	1.71214656305E+02	-9.84185151467E+00	1.71057309537E+02	-2.61583133136E+01	-1.29660431254E+01
6.47219100000E+09	-3.67477469910E+01	-7.77580196994E+01	-9.90498064500E+00	1.71063713253E+02	-9.85962433603E+00	1.70864583744E+02	-2.61607096261E+01	-1.32232050208E+01
6.48019000000E+09	-3.67882597544E+01	-7.81906873384E+01	-9.90524098678E+00	1.70884196077E+02	-9.86105577686E+00	1.70694742444E+02	-2.61533644616E+01	-1.34726856936E+01
6.48818900000E+09	-3.67563523847E+01	-7.82150645720E+01	-9.88970823773E+00	1.70704435099E+02	-9.86113669271E+00	1.70542833552E+02	-2.61355260358E+01	-1.37240815437E+01
6.49618800000E+09	-3.67796778718E+01	-7.84657952763E+01	-9.87487548444E+00	1.70505199295E+02	-9.85965507000E+00	1.70389830440E+02	-2.61312054639E+01	-1.39661232710E+01
6.50418700000E+09	-3.67717224599E+01	-7.83445448562E+01	-9.86709520000E+00	1.70247988686E+02	-9.85734626745E+00	1.70221192962E+02	-2.61206649819E+01	-1.41442258951E+01
6.51218600000E+09	-3.68016486174E+01	-7.84484585373E+01	-9.85746369681E+00	1.69945182547E+02	-9.84412850448E+00	1.70015238765E+02	-2.61121517337E+01	-1.42872808468E+01
6.52018500000E+09	-3.67832490342E+01	-7.82955149302E+01	-9.84850647682E+00	1.69651911399E+02	-9.82835582429E+00	1.69793508130E+02	-2.60806488602E+01	-1.43976049940E+01
6.52818400000E+09	-3.67933545194E+01	-7.81933238434E+01	-9.84637048680E+00	1.69335597096E+02	-9.82319918564E+00	1.69513823470E+02	-2.60629100941E+01	-1.44882762085E+01
6.53618300000E+09	-3.67845800767E+01	-7.79401121765E+01	-9.85255868466E+00	1.69008727397E+02	-9.81468826893E+00	1.69223149760E+02	-2.60509864471E+01	-1.46183140020E+01
6.54418200000E+09	-3.67839651225E+01	-7.80533545810E+01	-9.86566859341E+00	1.68716953602E+02	-9.80522249678E+00	1.68943121391E+02	-2.60397345354E+01	-1.46271069949E+01
6.55218100000E+09	-3.68047279402E+01	-7.77049876797E+01	-9.87375244846E+00	1.68446537431E+02	-9.80624487778E+00	1.68627176326E+02	-2.60383921653E+01	-1.46448808125E+01
6.56018000000E+09	-3.68769680626E+01	-7.75485529587E+01	-9.88817658487E+00	1.68222009134E+02	-9.81815787425E+00	1.68337016637E+02	-2.60325469286E+01	-1.47335510204E+01
6.56817900000E+09	-3.69407179198E+01	-7.70412306342E+01	-9.90323295520E+00	1.68029101971E+02	-9.82370031196E+00	1.68055361696E+02	-2.60323525773E+01	-1.46697017507E+01
6.57617800000E+09	-3.69846958261E+01	-7.69525836192E+01	-9.91059540498E+00	1.67877904172E+02	-9.82914657103E+00	1.67804039218E+02	-2.60285176725E+01	-1.47866866043E+01
6.58417700000E+09	-3.70435290649E+01	-7.63156656277E+01	-9.90803603074E+00	1.67714544770E+02	-9.84763096183E+00	1.67599456580E+02	-2.60464688126E+01	-1.49378805027E+01
6.59217600000E+09	-3.70647996282E+01	-7.65111776461E+01	-9.91536725833E+00	1.67570289041E+02	-9.84674428965E+00	1.67404248872E+02	-2.60318120358E+01	-1.51131391563E+01
6.60017500000E+09	-3.71161370832E+01	-7.65607952942E+01	-9.90157799208E+00	1.67405939559E+02	-9.84935755838E+00	1.67214563416E+02	-2.60381594755E+01	-1.52539561868E+01
6.60817400000E+09	-3.71910193493E+01	-7.66190533101E+01	-9.88837772212E+00	1.67194528617E+02	-9.84744814362E+00	1.67020161148E+02	-2.60585448334E+01	-1.54549319236E+01
6.61617300000E+09	-3.72517413567E+01	-7.65007480246E+01	-9.87655685548E+00	1.66973609128E+02	-9.84470484575E+00	1.66828632606E+02	-2.60715062961E+01	-1.57027877792E+01
6.62417200000E+09	-3.72831348515E+01	-7.63973313891E+01	-9.86409499260E+00	1.66709143649E+02	-9.83860800220E+00	1.66589224118E+02	-2.60587234193E+01	-1.58561572399E+01
6.63217100000E+09	-3.72773949613E+01	-7.67369149847E+01	-9.85809803928E+00	1.66396631639E+02	-9.83269160631E+00	1.66364260567E+02	-2.60734940395E+01	-1.61287892149E+01
6.64017000000E+09	-3.72948417914E+01	-7.68173696345E+01	-9.85491068267E+00	1.66093109988E+02	-9.83113621303E+00	1.66111495633E+02	-2.60547803871E+01	-1.63906488147E+01
6.64816900000E+09	-3.73033792129E+01	-7.69519793510E+01	-9.85811212165E+00	1.65779737667E+02	-9.82791981816E+00	1.65844931663E+02	-2.60411708618E+01	-1.66364306478E+01
6.65616800000E+09	-3.73366319253E+01	-7.69956373722E+01	-9.86187421711E+00	1.65491692842E+02	-9.83018639577E+00	1.65580974850E+02	-2.60245835855E+01	-1.68360289317E+01
6.66416700000E+09	-3.72985075877E+01	-7.70709737205E+01	-9.87384151956E+00	1.65209057172E+02	-9.83293314668E+00	1.65313887048E+02	-2.60007771812E+01	-1.70331397003E+01
6.67216600000E+09	-3.73921249773E+01	-7.69758407702E+01	-9.88707314985E+00	1.64980613450E+02	-9.83848374196E+00	1.65086331673E+02	-2.59823926972E+01	-1.71960423836E+01
6.68016500000E+09	-3.73788166152E+01	-7.66628654400E+01	-9.89513974000E+00	1.64775233128E+02	-9.84317886504E+00	1.64839947138E+02	-2.59639859349E+01	-1.73979247915E+01
6.68816400000E+09	-3.73586666199E+01	-7.66355572320E+01	-9.90185633799E+00	1.64588988489E+02	-9.84689930802E+00	1.64644505695E+02	-2.59287703555E+01	-1.74512455295E+01
6.69616300000E+09	-3.73659489189E+01	-7.62388689957E+01	-9.90743804475E+00	1.64437397392E+02	-9.84996549663E+00	1.64447332098E+02	-2.59160769339E+01	-1.76417851273E+01
6.70416200000E+09	-3.73529228789E+01	-7.60532758428E+01	-9.89920682278E+00	1.64256757859E+02	-9.84442949991E+00	1.64244881269E+02	-2.58974308626E+01	-1.77630824175E+01
6.71216100000E+09	-3.73750334560E+01	-7.57834829239E+01	-9.89356649576E+00	1.64046101914E+02	-9.83766244131E+00	1.64052014053E+02	-2.58980844721E+01	-1.77039635858E+01
6.72016000000E+09	-3.74314861077E+01	-7.55675377162E+01	-9.88738592764E+00	1.63892385879E+02	-9.83213251902E+00	1.63831582776E+02	-2.58809770490E+01	-1.77725826184E+01
6.72815900000E+09	-3.74429731480E+01	-7.51673592957E+01	-9.87673233856E+00	1.63612644519E+02	-9.82260058221E+00	1.63574962916E+02	-2.58839322692E+01	-1.78040910780E+01
6.73615800000E+09	-3.74638534967E+01	-7.47354164473E+01	-9.87058233276E+00	1.63339221129E+02	-9.81343276174E+00	1.63296783521E+02	-2.58875252674E+01	-1.79291419897E+01
6.74415700000E+09	-3.75407813949E+01	-7.47118257731E+01	-9.86594432070E+00	1.63055869225E+02	-9.80959053512E+00	1.62993186781E+02	-2.58995496693E+01	-1.80022327267E+01
6.75215600000E+09	-3.75745841439E+01	-7.44173637448E+01	-9.86744334136E+00	1.62751548434E+02	-9.81185975751E+00	1.62664926592E+02	-2.59038942017E+01	-1.80887692022E+01
6.76015500000E+09	-3.76082992887E+01	-7.43870318011E+01	-9.87072258422E+00	1.62466701149E+02	-9.81877515420E+00	1.62383604792E+02	-2.59147015725E+01	-1.82743132614E+01
6.76815400000E+09	-3.77107194266E+01	-7.41432298536E+01	-9.87822248036E+00	1.62205335356E+02	-9.82538046270E+00	1.62087740754E+02	-2.59269488420E+01	-1.84788465587E+01
6.77615300000E+09	-3.77321049091E+01	-7.41194432349E+01	-9.88712952142E+00	1.61945115916E+02	-9.83745835629E+00	1.61822275461E+02	-2.59267682170E+01	-1.86817284497E+01
6.78415200000E+09	-3.77624463604E+01	-7.40588738764E+01	-9.89488468404E+00	1.61750795808E+02	-9.85007194546E+00	1.61613581488E+02	-2.59239427101E+01	-1.89190334687E+01
6.79215100000E+09	-3.77587246258E+01	-7.42099741505E+01	-9.90085625207E+00	1.61540422494E+02	-9.86038089558E+00	1.61425899577E+02	-2.59220125831E+01	-1.92653762579E+01
6.80015000000E+09	-3.78542666420E+01	-7.37608545237E+01	-9.90477354097E+00	1.61351221282E+02	-9.87084796035E+00	1.61265517395E+02	-2.58997075564E+01	-1.95457084728E+01
6.80814900000E+09	-3.78307435067E+01	-7.38821587124E+01	-9.90357843827E+00	1.61182411436E+02	-9.87363129820E+00	1.61110654729E+02	-2.58924268430E+01	-1.98475704962E+01
6.81614800000E+09	-3.78250572676E+01	-7.40515744481E+01	-9.89926643567E+00	1.61004202188E+02	-9.86959666470E+00	1.60982286519E+02	-2.58798513538E+01	-2.02089659638E+01
6.82414700000E+09	-3.78328068279E+01	-7.38343791977E+01	-9.89316299425E+00	1.60789640697E+02	-9.86190968058E+00	1.60814734828E+02	-2.58603268725E+01	-2.05071596531E+01
6.83214600000E+09	-3.78729095313E+01	-7.38874500246E+01	-9.88496268031E+00	1.60552167604E+02	-9.85084841729E+00	1.60641617631E+02	-2.58334861926E+01	-2.06611832062E+01
6.84014500000E+09	-3.78765579601E+01	-7.34088643671E+01	-9.87459820337E+00	1.60291903129E+02	-9.83291953558E+00	1.60426932719E+02	-2.58123070798E+01	-2.09032230228E+01
6.84814400000E+09	-3.78620163793E+01	-7.30535978912E+01	-9.86959660157E+00	1.60012281449E+02	-9.81856551395E+00	1.60154521719E+02	-2.57766919666E+01	-2.09501383566E+01
6.85614300000E+09	-3.78939213775E+01	-7.29181197353E+01	-9.87098493195E+00	1.59731668663E+02	-9.80518272564E+00	1.59861257202E+02	-2.57439210731E+01	-2.10844413969E+01
6.86414200000E+09	-3.79068337575E+01	-7.28342582222E+01	-9.87530606954E+00	1.59411692358E+02	-9.79738766123E+00	1.59545340204E+02	-2.57281546618E+01	-2.11188645244E+01
6.87214100000E+09	-3.79543452987E+01	-7.23032844521E+01	-9.87812070554E+00	1.59154483401E+02	-9.79711723706E+00	1.59191811179E+02	-2.56994908005E+01	-2.12117692236E+01
6.88014000000E+09	-3.79988449700E+01	-7.19851260896E+01	-9.89234099159E+00	1.58901348815E+02	-9.80062490778E+00	1.58864165548E+02	-2.56834367690E+01	-2.11273309390E+01
6.88813900000E+09	-3.80707657173E+01	-7.17541462480E+01	-9.89984307747E+00	1.58680223302E+02	-9.80871573546E+00	1.58532105924E+02	-2.56728649127E+01	-2.11928130797E+01
6.89613800000E+09	-3.81458451281E+01	-7.08756870469E+01	-9.90625827998E+00	1.58479966467E+02	-9.82411764732E+00	1.58240489958E+02	-2.56702366349E+01	-2.12307147541E+01
6.90413700000E+09	-3.82392481403E+01	-7.06578690482E+01	-9.91182362269E+00	1.58306701748E+02	-9.83838086454E+00	1.57998358942E+02	-2.56641002322E+01	-2.13299265258E+01
6.91213600000E+09	-3.82122911403E+01	-7.02556921883E+01	-9.91151063970E+00	1.58143112311E+02	-9.85519581197E+00	1.57802871773E+02	-2.56462193224E+01	-2.14977982145E+01
6.92013500000E+09	-3.82610299132E+01	-7.01552227586E+01	-9.90674313756E+00	1.57982585190E+02	-9.86698972376E+00	1.57619228155E+02	-2.56529128099E+01	-2.16438912680E+01
6.92813400000E+09	-3.82841537535E+01	-7.02375117333E+01	-9.89579153444E+00	1.57791140998E+02	-9.87332194799E+00	1.57470437898E+02	-2.56556020779E+01	-2.17894863774E+01
6.93613300000E+09	-3.83670412686E+01	-7.01295955830E+01	-9.88290902848E+00	1.57553733233E+02	-9.87440352802E+00	1.57325371546E+02	-2.56732402707E+01	-2.19913925912E+01
6.94413200000E+09	-3.84164187720E+01	-6.99461456043E+01	-9.87319116116E+00	1.57288611103E+02	-9.87059472425E+00	1.57162045016E+02	-2.56806313882E+01	-2.21921592114E+01
6.95213100000E+09	-3.84361034458E+01	-7.00851830931E+01	-9.86599653944E+00	1.57014638946E+02	-9.86226476245E+00	1.57009150694E+02	-2.56790495001E+01	-2.24406370523E+01
6.96013000000E+09	-3.84913479233E+01	-7.00272807554E+01	-9.86071402415E+00	1.56708737503E+02	-9.84925056357E+00	1.56793301136E+02	-2.56786366112E+01	-2.27181796801E+01
6.96812900000E+09	-3.84423844706E+01	-7.01787314106E+01	-9.86006146915E+00	1.56389409135E+02	-9.83707918725E+00	1.56562606246E+02	-2.56627502730E+01	-2.29704196546E+01
6.97612800000E+09	-3.84284988578E+01	-7.03997327867E+01	-9.86625735423E+00	1.56082071750E+02	-9.82857565933E+00	1.56320912375E+02	-2.56384931670E+01	-2.32392319197E+01
6.98412700000E+09	-3.84158821199E+01	-7.03509638448E+01	-9.87866885564E+00	1.55790895321E+02	-9.82338909526E+00	1.56035469002E+02	-2.56246395062E+01	-2.34210050200E+01
6.99212600000E+09	-3.84497990638E+01	-7.00339074790E+01	-9.88966473651E+00	1.55538487891E+02	-9.81428640867E+00	1.55737082357E+02	-2.56039937780E+01	-2.36769364445E+01
7.00012500000E+09	-3.84864334687E+01	-6.98736721638E+01	-9.90172466772E+00	1.55312317522E+02	-9.81570393991E+00	1.55430426581E+02	-2.55809132553E+01	-2.38660439793E+01
7.00812400000E+09	-3.84646152049E+01	-6.94343419256E+01	-9.91422205394E+00	1.55140247350E+02	-9.81691519418E+00	1.55129660512E+02	-2.55494819332E+01	-2.39706278819E+01
7.01612300000E+09	-3.85061381439E+01	-6.86740979536E+01	-9.92104615383E+00	1.54983785400E+02	-9.82501476417E+00	1.54863138476E+02	-2.55229974106E+01	-2.41805495821E+01
7.02412200000E+09	-3.84703655482E+01	-6.81586396316E+01	-9.92154714261E+00	1.54822887654E+02	-9.83186154510E+00	1.54608137607E+02	-2.55058410791E+01	-2.43522476910E+01
7.03212100000E+09	-3.84891321652E+01	-6.78570082821E+01	-9.91928840107E+00	1.54688887605E+02	-9.84083912844E+00	1.54369294746E+02	-2.54733024078E+01	-2.44308717623E+01
7.04012000000E+09	-3.84856445747E+01	-6.68668073301E+01	-9.90791368658E+00	1.54486987119E+02	-9.84386901257E+00	1.54140870277E+02	-2.54509503530E+01	-2.44958629650E+01
7.04811900000E+09	-3.85635896669E+01	-6.63910089475E+01	-9.89609578088E+00	1.54300674434E+02	-9.84877966953E+00	1.53938183606E+02	-2.54322214997E+01	-2.46416922260E+01
7.05611800000E+09	-3.85677525975E+01	-6.58224222889E+01	-9.88648528546E+00	1.54043717311E+02	-9.84724047150E+00	1.53738979934E+02	-2.54311578521E+01	-2.47873419150E+01
7.06411700000E+09	-3.86152352913E+01	-6.55034870865E+01	-9.87533273572E+00	1.53762913604E+02	-9.84703880371E+00	1.53520352739E+02	-2.54257286646E+01	-2.48041262798E+01
7.07211600000E+09	-3.87112057467E+01	-6.53924695576E+01	-9.86023756188E+00	1.53471606697E+02	-9.84949898514E+00	1.53282008894E+02	-2.54241521319E+01	-2.49465463278E+01
7.08011500000E+09	-3.87904012586E+01	-6.47016488286E+01	-9.86200473451E+00	1.53125599403E+02	-9.84569463216E+00	1.53074799816E+02	-2.54171960076E+01	-2.50688296212E+01
7.08811400000E+09	-3.88659411410E+01	-6.48017809950E+01	-9.86671219360E+00	1.52825231312E+02	-9.84475964438E+00	1.52859319198E+02	-2.54012562788E+01	-2.52866657313E+01
7.09611300000E+09	-3.89392422708E+01	-6.50129485886E+01	-9.87642188265E+00	1.52529531549E+02	-9.83969939866E+00	1.52604932642E+02	-2.53864042813E+01	-2.55016974344E+01
7.10411200000E+09	-3.89740367692E+01	-6.50107599996E+01	-9.88459865140E+00	1.52248684507E+02	-9.84069584337E+00	1.52365080193E+02	-2.54010664110E+01	-2.56611077720E+01
7.11211100000E+09	-3.90541496278E+01	-6.48962113021E+01	-9.89228357440E+00	1.52011251872E+02	-9.84641430695E+00	1.52134107875E+02	-2.53864494627E+01	-2.58892749289E+01
7.12011000000E+09	-3.91331535624E+01	-6.47037760936E+01	-9.91086727374E+00	1.51794232663E+02	-9.84394734253E+00	1.51904588394E+02	-2.53750423739E+01	-2.62124302183E+01
7.12810900000E+09	-3.91249852564E+01	-6.46601935873E+01	-9.91716935443E+00	1.51619143420E+02	-9.84192087504E+00	1.51687227947E+02	-2.53610075749E+01	-2.64064207890E+01
7.13610800000E+09	-3.91490215048E+01	-6.44974043226E+01	-9.92420300030E+00	1.51465012278E+02	-9.84205230916E+00	1.51477664770E+02	-2.53397899671E+01	-2.66532616339E+01
7.14410700000E+09	-3.91372542604E+01	-6.42043755777E+01	-9.91883025366E+00	1.51286485553E+02	-9.84603909826E+00	1.51233210409E+02	-2.53221683192E+01	-2.68400326451E+01
7.15210600000E+09	-3.91556322412E+01	-6.44378278235E+01	-9.91289627018E+00	1.51109183653E+02	-9.84103497862E+00	1.51009162931E+02	-2.52971021793E+01	-2.70095255042E+01
7.16010500000E+09	-3.91069890441E+01	-6.37987298629E+01	-9.90876504765E+00	1.50926623753E+02	-9.82801854438E+00	1.50759925664E+02	-2.52669405109E+01	-2.72114634552E+01
7.16810400000E+09	-3.90944637525E+01	-6.33837199207E+01	-9.89837450315E+00	1.50708872108E+02	-9.82492097842E+00	1.50524138749E+02	-2.52404254225E+01	-2.73945341999E+01
7.17610300000E+09	-3.91086994913E+01	-6.30999328520E+01	-9.88374648548E+00	1.50442206179E+02	-9.82133543027E+00	1.50237117721E+02	-2.52129954916E+01	-2.75731395907E+01
7.18410200000E+09	-3.90680487956E+01	-6.27440666494E+01	-9.87758028872E+00	1.50156269768E+02	-9.82332786108E+00	1.49971965987E+02	-2.51862164952E+01	-2.76730578427E+01
7.19210100000E+09	-3.90395175478E+01	-6.26651503897E+01	-9.87648031053E+00	1.49855390908E+02	-9.82343539152E+00	1.49673565878E+02	-2.51701354827E+01	-2.77941013500E+01
7.20010000000E+09	-3.90659409616E+01	-6.17110723592E+01	-9.87606461596E+00	1.49562139019E+02	-9.82635680914E+00	1.49397073131E+02	-2.51568502546E+01	-2.79318453335E+01
7.20809900000E+09	-3.90851042804E+01	-6.13093713224E+01	-9.88262318478E+00	1.49297839252E+02	-9.83130257614E+00	1.49128521375E+02	-2.51376233955E+01	-2.79090531317E+01
7.21609800000E+09	-3.91692913764E+01	-6.09060524041E+01	-9.88966602123E+00	1.49020946422E+02	-9.83912301712E+00	1.48853468035E+02	-2.51347213687E+01	-2.82107032146E+01
7.22409700000E+09	-3.92111241430E+01	-6.05189612063E+01	-9.89769250246E+00	1.48801087936E+02	-9.85280479854E+00	1.48619476004E+02	-2.51190545925E+01	-2.82664955588E+01
7.23209600000E+09	-3.92391157944E+01	-6.00416322979E+01	-9.90904385468E+00	1.48565387742E+02	-9.86107811961E+00	1.48414111453E+02	-2.50956301903E+01	-2.84491548238E+01
7.24009500000E+09	-3.92179299955E+01	-5.94262161328E+01	-9.91391096266E+00	1.48371295897E+02	-9.86924727695E+00	1.48214077768E+02	-2.50888351280E+01	-2.86579845816E+01
7.24809400000E+09	-3.92904516528E+01	-5.94884203835E+01	-9.91428976516E+00	1.48198265604E+02	-9.87172400873E+00	1.48063904275E+02	-2.50783180663E+01	-2.88875941875E+01
7.25609300000E+09	-3.93857315227E+01	-5.89917509770E+01	-9.91021332668E+00	1.47991056641E+02	-9.87308902935E+00	1.47912799759E+02	-2.50639501282E+01	-2.90890263130E+01
7.26409200000E+09	-3.93515617520E+01	-5.88885681432E+01	-9.90831601020E+00	1.47808721489E+02	-9.86930266762E+00	1.47719332513E+02	-2.50512976688E+01	-2.93013677405E+01
7.27209100000E+09	-3.94262694220E+01	-5.86726766053E+01	-9.90356155865E+00	1.47574807628E+02	-9.85961404450E+00	1.47536081339E+02	-2.50363566256E+01	-2.95453315275E+01
7.28009000000E+09	-3.94915297044E+01	-5.92102251411E+01	-9.89682926909E+00	1.47339405387E+02	-9.84964188795E+00	1.47340757035E+02	-2.50103355165E+01	-2.98299554624E+01
7.28808900000E+09	-3.94737337071E+01	-5.89731838423E+01	-9.89083678460E+00	1.47088975151E+02	-9.83732752308E+00	1.47088784945E+02	-2.49864696627E+01	-3.00101389640E+01
7.29608800000E+09	-3.95002244016E+01	-5.86332389153E+01	-9.88774363275E+00	1.46829962177E+02	-9.82443184912E+00	1.46821430934E+02	-2.49630194296E+01	-3.02852097393E+01
7.30408700000E+09	-3.94366576457E+01	-5.84538241698E+01	-9.88917250012E+00	1.46554454303E+02	-9.81857378461E+00	1.46523367489E+02	-2.49233123424E+01	-3.04240921695E+01
7.31208600000E+09	-3.94944093587E+01	-5.80715365643E+01	-9.89174566445E+00	1.46293175227E+02	-9.81468776353E+00	1.46233887957E+02	-2.48949361259E+01	-3.04911544806E+01
7.32008500000E+09	-3.94742143222E+01	-5.79806068780E+01	-9.89626153110E+00	1.46018201602E+02	-9.81328864745E+00	1.45919619204E+02	-2.48554596661E+01	-3.06901852247E+01
7.32808400000E+09	-3.94270305091E+01	-5.72382927757E+01	-9.90173811528E+00	1.45781698301E+02	-9.81783066155E+00	1.45591433878E+02	-2.48189175667E+01	-3.08046026083E+01
7.33608300000E+09	-3.93592742869E+01	-5.68468235547E+01	-9.90497619186E+00	1.45559506524E+02	-9.82478383853E+00	1.45310407402E+02	-2.48006832265E+01	-3.08739185047E+01
7.34408200000E+09	-3.93893824557E+01	-5.60268013795E+01	-9.90998569081E+00	1.45359669301E+02	-9.83757537278E+00	1.45031119326E+02	-2.47693076409E+01	-3.09877848238E+01
7.35208100000E+09	-3.93266308204E+01	-5.55328113668E+01	-9.91056012695E+00	1.45150339144E+02	-9.84498542752E+00	1.44771750209E+02	-2.47438223448E+01	-3.11263741333E+01
7.36008000000E+09	-3.92915116269E+01	-5.50258352607E+01	-9.91103982758E+00	1.44951328902E+02	-9.86042228183E+00	1.44569954786E+02	-2.47263840864E+01	-3.11468808559E+01
7.36807900000E+09	-3.93014243526E+01	-5.44740420908E+01	-9.90789274615E+00	1.44745741282E+02	-9.86966760531E+00	1.44380988459E+02	-2.47175829357E+01	-3.13635711546E+01
7.37607800000E+09	-3.92940339348E+01	-5.35422538039E+01	-9.90180017176E+00	1.44514319645E+02	-9.87567456753E+00	1.44206152453E+02	-2.46999904472E+01	-3.15088682713E+01
7.38407700000E+09	-3.93620329086E+01	-5.32061045170E+01	-9.89768898953E+00	1.44286139257E+02	-9.87868483179E+00	1.44050478438E+02	-2.47084260255E+01	-3.15475483718E+01
7.39207600000E+09	-3.94463648853E+01	-5.27452021425E+01	-9.88897913787E+00	1.44029651178E+02	-9.87394101278E+00	1.43886054158E+02	-2.46968874588E+01	-3.16299856058E+01
7.40007500000E+09	-3.95392146108E+01	-5.22906091250E+01	-9.88812536827E+00	1.43772859637E+02	-9.86574653644E+00	1.43712899482E+02	-2.46816973623E+01	-3.18552983388E+01
7.40807400000E+09	-3.95530238985E+01	-5.15213169958E+01	-9.88484369766E+00	1.43492998614E+02	-9.85557665042E+00	1.43509736651E+02	-2.46781395356E+01	-3.21025854920E+01
7.41607300000E+09	-3.96321862714E+01	-5.12837956891E+01	-9.88904761874E+00	1.43213906478E+02	-9.84517937206E+00	1.43272105231E+02	-2.46728359196E+01	-3.22251096609E+01
7.42407200000E+09	-3.96310484207E+01	-5.12383437378E+01	-9.89011337608E+00	1.42942675869E+02	-9.83291572534E+00	1.43005262004E+02	-2.46548745422E+01	-3.26146333705E+01
7.43207100000E+09	-3.97375031725E+01	-5.08073726091E+01	-9.89915996243E+00	1.42688498023E+02	-9.82573024861E+00	1.42714326421E+02	-2.46418680205E+01	-3.26625014090E+01
7.44007000000E+09	-3.98115453610E+01	-5.08065044657E+01	-9.90415446049E+00	1.42465720515E+02	-9.82222446017E+00	1.42433143763E+02	-2.46043329409E+01	-3.29386128060E+01
7.44806900000E+09	-3.97916285892E+01	-5.05237302918E+01	-9.90994012957E+00	1.42226681770E+02	-9.81813706138E+00	1.42121051243E+02	-2.45831152381E+01	-3.31598155607E+01
7.45606800000E+09	-3.97844008179E+01	-5.02814904971E+01	-9.91526271594E+00	1.42043354551E+02	-9.82260247830E+00	1.41797695328E+02	-2.45492262276E+01	-3.34097189309E+01
7.46406700000E+09	-3.97074330406E+01	-5.01830870418E+01	-9.91670366474E+00	1.41833723946E+02	-9.82869272042E+00	1.41505764036E+02	-2.45084431212E+01	-3.35542991712E+01
7.47206600000E+09	-3.96660765674E+01	-4.98150926594E+01	-9.91476860964E+00	1.41632154441E+02	-9.83891858440E+00	1.41232651874E+02	-2.44876891239E+01	-3.37081928983E+01
7.48006500000E+09	-3.96643357008E+01	-4.99623114959E+01	-9.91125821450E+00	1.41448729381E+02	-9.84884270742E+00	1.40987239962E+02	-2.44416554849E+01	-3.38603017854E+01
7.48806400000E+09	-3.95346883688E+01	-4.93993714483E+01	-9.90512518960E+00	1.41220487022E+02	-9.85836547584E+00	1.40756106295E+02	-2.44027527890E+01	-3.40837736341E+01
7.49606300000E+09	-3.95363091957E+01	-4.93539757261E+01	-9.89889522799E+00	1.40987652004E+02	-9.86831279142E+00	1.40572615372E+02	-2.43794829346E+01	-3.41481153450E+01
7.50406200000E+09	-3.94620310064E+01	-4.89201933385E+01	-9.89516676450E+00	1.40742957178E+02	-9.87595419017E+00	1.40383078214E+02	-2.43570622689E+01	-3.42343778371E+01
7.51206100000E+09	-3.93991097079E+01	-4.82632686747E+01	-9.88824560222E+00	1.40449020650E+02	-9.87614191168E+00	1.40217740197E+02	-2.43439631896E+01	-3.42900174964E+01
7.52006000000E+09	-3.93855779924E+01	-4.72908827077E+01	-9.88576285510E+00	1.40168881372E+02	-9.87584176223E+00	1.40043390538E+02	-2.43253639185E+01	-3.43256214495E+01
7.52805900000E+09	-3.93726050543E+01	-4.66548853649E+01	-9.88862922065E+00	1.39891891749E+02	-9.86842263740E+00	1.39848003771E+02	-2.43038038048E+01	-3.45408057701E+01
7.53605800000E+09	-3.94253306914E+01	-4.60248077665E+01	-9.89270233451E+00	1.39610720962E+02	-9.86201659186E+00	1.39649455258E+02	-2.42921327498E+01	-3.46190149631E+01
7.54405700000E+09	-3.94732393294E+01	-4.52003939678E+01	-9.89838970487E+00	1.39366872618E+02	-9.85341290521E+00	1.39418500722E+02	-2.42869367104E+01	-3.47820812018E+01
7.55205600000E+09	-3.94327026686E+01	-4.48400428402E+01	-9.90900560069E+00	1.39114216676E+02	-9.84729349377E+00	1.39170430516E+02	-2.42776177457E+01	-3.49050185744E+01
7.56005500000E+09	-3.94905734402E+01	-4.33986925833E+01	-9.91459034965E+00	1.38883424177E+02	-9.83998466568E+00	1.38908810646E+02	-2.42671667128E+01	-3.51279050830E+01
7.56805400000E+09	-3.95242210360E+01	-4.30566082255E+01	-9.91945469224E+00	1.38697019172E+02	-9.83358422723E+00	1.38631848584E+02	-2.42559712277E+01	-3.53246935610E+01
7.57605300000E+09	-3.96506582426E+01	-4.26483960379E+01	-9.92473900905E+00	1.38494271350E+02	-9.83412298032E+00	1.38345916235E+02	-2.42350101493E+01	-3.55775330562E+01
7.58405200000E+09	-3.96641162312E+01	-4.23754404548E+01	-9.92334183804E+00	1.38301951710E+02	-9.83564870220E+00	1.38058673677E+02	-2.42166465500E+01	-3.58174067827E+01
7.59205100000E+09	-3.97940302318E+01	-4.20671874447E+01	-9.92144244056E+00	1.38110907576E+02	-9.83848841520E+00	1.37792859236E+02	-2.41785561498E+01	-3.60845160274E+01
7.60005000000E+09	-3.97290161378E+01	-4.17488380319E+01	-9.91604983037E+00	1.37914129104E+02	-9.84393371303E+00	1.37533831662E+02	-2.41534916165E+01	-3.63619581962E+01
7.60804900000E+09	-3.97607650860E+01	-4.22194323529E+01	-9.90851685841E+00	1.37683845745E+02	-9.85011316718E+00	1.37277595094E+02	-2.41220502481E+01	-3.66106576543E+01
7.61604800000E+09	-3.97642903555E+01	-4.20556286267E+01	-9.90557635608E+00	1.37465427662E+02	-9.85575749000E+00	1.37062272676E+02	-2.40922491394E+01	-3.67671184641E+01
7.62404700000E+09	-3.98001417522E+01	-4.26474941657E+01	-9.89770576590E+00	1.37203340315E+02	-9.85685967463E+00	1.36848259639E+02	-2.40620800559E+01	-3.69766057347E+01
7.63204600000E+09	-3.97804389949E+01	-4.24059796211E+01	-9.88925512239E+00	1.36921358724E+02	-9.85904695685E+00	1.36626612289E+02	-2.40180398618E+01	-3.71493599638E+01
7.64004500000E+09	-3.97165013300E+01	-4.22684761237E+01	-9.88914003886E+00	1.36646761612E+02	-9.85990668173E+00	1.36407778589E+02	-2.39832096066E+01	-3.72397371675E+01
7.64804400000E+09	-3.96242446477E+01	-4.22442753151E+01	-9.88894634139E+00	1.36374556620E+02	-9.85754047567E+00	1.36177120528E+02	-2.39452086841E+01	-3.72874252945E+01
7.65604300000E+09	-3.95085600490E+01	-4.19400200681E+01	-9.89343860414E+00	1.36093827052E+02	-9.85729395238E+00	1.35943829836E+02	-2.39090872997E+01	-3.74039326085E+01
7.66404200000E+09	-3.94503961847E+01	-4.17061686168E+01	-9.89420577062E+00	1.35818070129E+02	-9.85383856918E+00	1.35680444213E+02	-2.38870507800E+01	-3.74454237876E+01
7.67204100000E+09	-3.93664452296E+01	-4.08358401893E+01	-9.90353180798E+00	1.35557805122E+02	-9.85287184106E+00	1.35439250322E+02	-2.38710583254E+01	-3.75676452883E+01
7.68004000000E+09	-3.93300015131E+01	-4.01452191792E+01	-9.91119228887E+00	1.35307338617E+02	-9.85523289804E+00	1.35234076802E+02	-2.38453830220E+01	-3.77154412553E+01
7.68803900000E+09	-3.93086835717E+01	-3.99948889139E+01	-9.92033105463E+00	1.35125791589E+02	-9.85341924385E+00	1.34966263517E+02	-2.38360672170E+01	-3.77660827500E+01
7.69603800000E+09	-3.92231054653E+01	-3.90828231115E+01	-9.92487255300E+00	1.34914547956E+02	-9.85970456150E+00	1.34708580327E+02	-2.38130405194E+01	-3.79444185384E+01
7.70403700000E+09	-3.91154889503E+01	-3.82153112662E+01	-9.92763558669E+00	1.34726293581E+02	-9.86249438197E+00	1.34482709230E+02	-2.38114116177E+01	-3.80543763780E+01
7.71203600000E+09	-3.91778637086E+01	-3.74730227813E+01	-9.92701707494E+00	1.34530008644E+02	-9.86375774092E+00	1.34261592111E+02	-2.38059842120E+01	-3.82033546125E+01
7.72003500000E+09	-3.91639948879E+01	-3.71164984601E+01	-9.92501825021E+00	1.34331883683E+02	-9.86522323441E+00	1.34047214235E+02	-2.37950253249E+01	-3.84265474224E+01
7.72803400000E+09	-3.92083507934E+01	-3.61305820178E+01	-9.91848645074E+00	1.34139962189E+02	-9.86275312758E+00	1.33841181923E+02	-2.37775717970E+01	-3.86680492703E+01
7.73603300000E+09	-3.92526943943E+01	-3.53197830383E+01	-9.91800809651E+00	1.33927608929E+02	-9.86000776994E+00	1.33623082566E+02	-2.37562294713E+01	-3.89633462076E+01
7.74403200000E+09	-3.93365263253E+01	-3.48143458366E+01	-9.90438569284E+00	1.33698491575E+02	-9.85307268404E+00	1.33414894452E+02	-2.37377573135E+01	-3.91508994525E+01
7.75203100000E+09	-3.93389098797E+01	-3.45598249229E+01	-9.90419862164E+00	1.33416912362E+02	-9.84777100976E+00	1.33127539830E+02	-2.37245307130E+01	-3.93605583933E+01
7.76003000000E+09	-3.94124226158E+01	-3.43655440011E+01	-9.90007686906E+00	1.33170184436E+02	-9.84383258694E+00	1.32900134904E+02	-2.36803860740E+01	-3.96977887791E+01
7.76802900000E+09	-3.94385237337E+01	-3.42670579648E+01	-9.89057013446E+00	1.32927473107E+02	-9.84244011171E+00	1.32606363424E+02	-2.36466426856E+01	-3.99576871321E+01
7.77602800000E+09	-3.94232850012E+01	-3.41655131562E+01	-9.89030371461E+00	1.32629002339E+02	-9.83712131849E+00	1.32309865845E+02	-2.36038488127E+01	-4.01988629026E+01
7.78402700000E+09	-3.94426446479E+01	-3.43772783930E+01	-9.89268595806E+00	1.32374004108E+02	-9.84333686278E+00	1.32014330514E+02	-2.35730867987E+01	-4.03701257894E+01
7.79202600000E+09	-3.93732608699E+01	-3.48192509280E+01	-9.89600917887E+00	1.32077743533E+02	-9.84990361030E+00	1.31762599268E+02	-2.35238889499E+01	-4.05235998250E+01
7.80002500000E+09	-3.93697186890E+01	-3.50545705056E+01	-9.89804659109E+00	1.31835468585E+02	-9.85561805795E+00	1.31488543173E+02	-2.34834391959E+01	-4.06006259760E+01
7.80802400000E+09	-3.92438850874E+01	-3.50743587410E+01	-9.90262674067E+00	1.31535388242E+02	-9.86164634936E+00	1.31281621474E+02	-2.34432272605E+01	-4.07108937093E+01
7.81602300000E+09	-3.91709142762E+01	-3.51401982356E+01	-9.90431339800E+00	1.31332593820E+02	-9.87354576251E+00	1.31078962944E+02	-2.34035969028E+01	-4.08194868357E+01
7.82402200000E+09	-3.90725114293E+01	-3.45764175968E+01	-9.91006484711E+00	1.31096478049E+02	-9.87877928923E+00	1.30859501108E+02	-2.33875813003E+01	-4.09207260959E+01
7.83202100000E+09	-3.89752142857E+01	-3.45575814682E+01	-9.91252165855E+00	1.30854405405E+02	-9.88385431319E+00	1.30688370696E+02	-2.33546189098E+01	-4.10448014433E+01
7.84002000000E+09	-3.88499285800E+01	-3.41392480976E+01	-9.91703416380E+00	1.30642391219E+02	-9.87562084136E+00	1.30507497764E+02	-2.33357320083E+01	-4.10832778516E+01
7.84801900000E+09	-3.87573475479E+01	-3.32859701420E+01	-9.92033106931E+00	1.30422514225E+02	-9.87387560873E+00	1.30326374427E+02	-2.33091203874E+01	-4.11878583596E+01
7.85601800000E+09	-3.87189509747E+01	-3.19762923415E+01	-9.92109033056E+00	1.30192330788E+02	-9.86515995957E+00	1.30113286575E+02	-2.33044534172E+01	-4.12822134472E+01
7.86401700000E+09	-3.86236970295E+01	-3.14053132330E+01	-9.92158553936E+00	1.29988104890E+02	-9.85016730496E+00	1.29878777788E+02	-2.32986039178E+01	-4.14534153469E+01
7.87201600000E+09	-3.85950598131E+01	-3.05438421610E+01	-9.92078054196E+00	1.29761911872E+02	-9.84061346965E+00	1.29602574201E+02	-2.32875203229E+01	-4.15469574807E+01
7.88001500000E+09	-3.85720714209E+01	-2.95516372634E+01	-9.92113644845E+00	1.29535865240E+02	-9.83569370903E+00	1.29301744102E+02	-2.32738403058E+01	-4.16736079919E+01
7.88801400000E+09	-3.85880282263E+01	-2.84813144701E+01	-9.92365494584E+00	1.29320585964E+02	-9.83252336526E+00	1.28986651548E+02	-2.32540308933E+01	-4.19629723076E+01
7.89601300000E+09	-3.86288661710E+01	-2.79914079042E+01	-9.91984971006E+00	1.29091924778E+02	-9.83538066321E+00	1.28658679906E+02	-2.32318844517E+01	-4.22832541936E+01
7.90401200000E+09	-3.86143122043E+01	-2.78284200273E+01	-9.91930689214E+00	1.28893977618E+02	-9.84022382315E+00	1.28363433542E+02	-2.32005877241E+01	-4.26131724219E+01
7.91201100000E+09	-3.86384993528E+01	-2.71572124537E+01	-9.91463851012E+00	1.28703733957E+02	-9.85233119191E+00	1.28052268602E+02	-2.31684726539E+01	-4.28695829831E+01
7.92001000000E+09	-3.87239012543E+01	-2.72215206157E+01	-9.91370427836E+00	1.28453383637E+02	-9.86262511238E+00	1.27822791421E+02	-2.31319955650E+01	-4.32581472753E+01
7.92800900000E+09	-3.87894136218E+01	-2.72324823823E+01	-9.90467074535E+00	1.28238280106E+02	-9.87915840388E+00	1.27625348098E+02	-2.30969664807E+01	-4.34895847384E+01
7.93600800000E+09	-3.88194580942E+01	-2.72841621558E+01	-9.89848103602E+00	1.27985639892E+02	-9.88712260250E+00	1.27446454548E+02	-2.30603949697E+01	-4.36164204358E+01
7.94400700000E+09	-3.88938033074E+01	-2.73240775155E+01	-9.89537901908E+00	1.27725974034E+02	-9.89260429195E+00	1.27296418628E+02	-2.30248217268E+01	-4.38435319596E+01
7.95200600000E+09	-3.88917952075E+01	-2.74552309618E+01	-9.88798819333E+00	1.27457592306E+02	-9.89402378734E+00	1.27144868592E+02	-2.29782922101E+01	-4.40424895049E+01
7.96000500000E+09	-3.88065480268E+01	-2.78272540848E+01	-9.88444771293E+00	1.27148675985E+02	-9.88559830454E+00	1.26985974457E+02	-2.29228056922E+01	-4.41551446287E+01
7.96800400000E+09	-3.87524857473E+01	-2.80119621594E+01	-9.88734986887E+00	1.26857810000E+02	-9.87213754446E+00	1.26801839792E+02	-2.28854363034E+01	-4.42602159476E+01
7.97600300000E+09	-3.86851487069E+01	-2.84685413710E+01	-9.89434233235E+00	1.26551084477E+02	-9.85950169533E+00	1.26553973316E+02	-2.28403781660E+01	-4.42783023919E+01
7.98400200000E+09	-3.86165531419E+01	-2.82352123070E+01	-9.89859890514E+00	1.26263371846E+02	-9.84523224288E+00	1.26307642124E+02	-2.27976687035E+01	-4.43516452618E+01
7.99200100000E+09	-3.84756387077E+01	-2.77447803436E+01	-9.91245153490E+00	1.26002363417E+02	-9.83363701244E+00	1.26017102679E+02	-2.27657963422E+01	-4.44127652118E+01
8.00000000000E+09	-3.83087928573E+01	-2.77239620370E+01	-9.92169655624E+00	1.25763136168E+02	-9.82618876224E+00	1.25659754091E+02	-2.27338453388E+01	-4.44040536586E+01
