# Hz S DB R 50
! CMT, CMT804U, 21380002, 24.2.2/4
! Date: 25/11/2025 13:47:42
! Data: Format (Calibration Info)
! Freq	S11:dB/Ang(F2)	S21:dB/Ang(F2)	S12:dB/Ang(F2)	S22:dB/Ang(F2)
1.00000000000E+06	-1.24485811944E+01	-9.27305083546E-02	-2.28316245467E+01	-5.24994053057E-02	-2.28269275500E+01	-5.62866269810E-02	-4.05889135706E+01	-4.65396407472E-01
8.99900000000E+06	-1.24495393307E+01	-3.67658960677E-01	-2.28329271089E+01	-2.74554806454E-01	-2.28281770467E+01	-2.80096445616E-01	-4.05185208595E+01	1.01480264694E+00
1.69980000000E+07	-1.24497672909E+01	-6.56643035039E-01	-2.28327813412E+01	-4.79842141380E-01	-2.28274724415E+01	-5.13216987438E-01	-4.04748467615E+01	1.57792472934E+00
2.49970000000E+07	-1.24495100843E+01	-9.58521170508E-01	-2.28333619671E+01	-7.21004390669E-01	-2.28307355920E+01	-7.32936093350E-01	-4.03769562694E+01	1.79330655591E+00
3.29960000000E+07	-1.24504752449E+01	-1.26559354560E+00	-2.28333288408E+01	-9.45463694204E-01	-2.28293528187E+01	-9.64875500065E-01	-4.03457412019E+01	1.97662205160E+00
4.09950000000E+07	-1.24516794217E+01	-1.55936120363E+00	-2.28317778625E+01	-1.17339790451E+00	-2.28269774650E+01	-1.17920576399E+00	-4.02799398511E+01	1.98794621510E+00
4.89940000000E+07	-1.24530088751E+01	-1.85375780077E+00	-2.28319869156E+01	-1.39062821233E+00	-2.28288521188E+01	-1.40319303452E+00	-4.02269109497E+01	1.80304125895E+00
5.69930000000E+07	-1.24545018847E+01	-2.16994479325E+00	-2.28334064152E+01	-1.62779507735E+00	-2.28289174178E+01	-1.60002289252E+00	-4.02080869916E+01	1.94066369541E+00
6.49920000000E+07	-1.24572540458E+01	-2.46256780843E+00	-2.28327918723E+01	-1.83704628106E+00	-2.28300488728E+01	-1.84523020292E+00	-4.01690066630E+01	1.79320967546E+00
7.29910000000E+07	-1.24576832518E+01	-2.76786363093E+00	-2.28326245939E+01	-2.06237144768E+00	-2.28285007298E+01	-2.06100930647E+00	-4.01412784020E+01	1.65876925642E+00
8.09900000000E+07	-1.24596556491E+01	-3.06053867571E+00	-2.28317670739E+01	-2.28875896181E+00	-2.28283220134E+01	-2.28841527580E+00	-4.00851459424E+01	1.47623287166E+00
8.89890000000E+07	-1.24635371203E+01	-3.35673656985E+00	-2.28311507265E+01	-2.50297568802E+00	-2.28258108836E+01	-2.49785435360E+00	-4.00352581489E+01	1.07272822758E+00
9.69880000000E+07	-1.24631234674E+01	-3.66010026770E+00	-2.28286547418E+01	-2.72600565360E+00	-2.28259862687E+01	-2.73013548226E+00	-4.00121670981E+01	9.06120476761E-01
1.04987000000E+08	-1.24674900824E+01	-3.94746404482E+00	-2.28320593338E+01	-2.93451650505E+00	-2.28282079807E+01	-2.96164179083E+00	-3.99748425428E+01	4.11916634950E-01
1.12986000000E+08	-1.24691817180E+01	-4.24497264948E+00	-2.28294655840E+01	-3.16746248261E+00	-2.28229163987E+01	-3.18282778826E+00	-3.99403026761E+01	2.12736433868E-01
1.20985000000E+08	-1.24727090838E+01	-4.55379629851E+00	-2.28272836224E+01	-3.40404922434E+00	-2.28249660014E+01	-3.41927455992E+00	-3.98776699963E+01	-7.76475097097E-02
1.28984000000E+08	-1.24757756079E+01	-4.85659208122E+00	-2.28270357285E+01	-3.60805397819E+00	-2.28226208504E+01	-3.62897162943E+00	-3.98378718947E+01	-1.82165646821E-01
1.36983000000E+08	-1.24784704877E+01	-5.14774028405E+00	-2.28244692198E+01	-3.83100556651E+00	-2.28224279089E+01	-3.84651785286E+00	-3.98151151458E+01	-4.28039566736E-01
1.44982000000E+08	-1.24807928308E+01	-5.45384680233E+00	-2.28241148948E+01	-4.08701686918E+00	-2.28193870876E+01	-4.07394611007E+00	-3.97847588788E+01	-6.28202706859E-01
1.52981000000E+08	-1.24851480934E+01	-5.74651556803E+00	-2.28270337069E+01	-4.28903004237E+00	-2.28193473688E+01	-4.29027215393E+00	-3.97522823401E+01	-6.89067951185E-01
1.60980000000E+08	-1.24872689802E+01	-6.04965883646E+00	-2.28250720672E+01	-4.51042033989E+00	-2.28193991651E+01	-4.52387541994E+00	-3.97543302994E+01	-7.16079220881E-01
1.68979000000E+08	-1.24899553651E+01	-6.34313149193E+00	-2.28218547643E+01	-4.75366234149E+00	-2.28160204955E+01	-4.74882226185E+00	-3.97542780917E+01	-8.51301861822E-01
1.76978000000E+08	-1.24933703493E+01	-6.63278770504E+00	-2.28216128049E+01	-4.96574776412E+00	-2.28172971772E+01	-4.95013593682E+00	-3.97393444514E+01	-1.09162782259E+00
1.84977000000E+08	-1.24966181246E+01	-6.92392520682E+00	-2.28195384480E+01	-5.18042140797E+00	-2.28129565169E+01	-5.17555433942E+00	-3.97207705355E+01	-1.15837741596E+00
1.92976000000E+08	-1.24983148178E+01	-7.21154093361E+00	-2.28179055620E+01	-5.40475315182E+00	-2.28161407191E+01	-5.40277257259E+00	-3.97725972739E+01	-1.20955113400E+00
2.00975000000E+08	-1.25031373122E+01	-7.49973414107E+00	-2.28165435462E+01	-5.64618195907E+00	-2.28145754371E+01	-5.62506601962E+00	-3.97810289330E+01	-1.56385872527E+00
2.08974000000E+08	-1.25056818371E+01	-7.79251878099E+00	-2.28127540926E+01	-5.86934290319E+00	-2.28139196925E+01	-5.85013564188E+00	-3.97867822605E+01	-1.76688709506E+00
2.16973000000E+08	-1.25081844634E+01	-8.08245598658E+00	-2.28135830617E+01	-6.09412310037E+00	-2.28080030537E+01	-6.07897884827E+00	-3.98355928760E+01	-1.86026525187E+00
2.24972000000E+08	-1.25126850510E+01	-8.35976208119E+00	-2.28119499238E+01	-6.31759397150E+00	-2.28054905874E+01	-6.29406350716E+00	-3.98571332366E+01	-2.30630530270E+00
2.32971000000E+08	-1.25157333372E+01	-8.64186427483E+00	-2.28094519997E+01	-6.54713873619E+00	-2.28053968988E+01	-6.52732883773E+00	-3.98667934069E+01	-2.51280387836E+00
2.40970000000E+08	-1.25192156219E+01	-8.92542414822E+00	-2.28086845049E+01	-6.77312435135E+00	-2.28024014973E+01	-6.75517455988E+00	-3.98904060140E+01	-2.76619467589E+00
2.48969000000E+08	-1.25216432138E+01	-9.19976081547E+00	-2.28087555312E+01	-6.99556008126E+00	-2.28006695004E+01	-7.00383477085E+00	-3.99050813824E+01	-3.24530218333E+00
2.56968000000E+08	-1.25254078624E+01	-9.49395319622E+00	-2.28032181917E+01	-7.23825324334E+00	-2.27995263472E+01	-7.20637153394E+00	-3.99211222861E+01	-3.64034595918E+00
2.64967000000E+08	-1.25299462732E+01	-9.76653404794E+00	-2.28059227810E+01	-7.44790091458E+00	-2.27986812808E+01	-7.44215760607E+00	-3.99075604606E+01	-4.03992602725E+00
2.72966000000E+08	-1.25336782189E+01	-1.00396157701E+01	-2.28019421428E+01	-7.69285556690E+00	-2.27948215143E+01	-7.67927269649E+00	-3.98973447304E+01	-4.59338419631E+00
2.80965000000E+08	-1.25355145055E+01	-1.03167210189E+01	-2.27998916791E+01	-7.91033878586E+00	-2.27960946810E+01	-7.90908887904E+00	-3.98721703734E+01	-4.91669150862E+00
2.88964000000E+08	-1.25431499847E+01	-1.06013272629E+01	-2.27991251377E+01	-8.13699220748E+00	-2.27938292125E+01	-8.12548521403E+00	-3.98821764767E+01	-5.01232454352E+00
2.96963000000E+08	-1.25469712514E+01	-1.08793313104E+01	-2.27972398229E+01	-8.37138730009E+00	-2.27923375980E+01	-8.34536893637E+00	-3.98460113552E+01	-5.34476641211E+00
3.04962000000E+08	-1.25527722245E+01	-1.11617847225E+01	-2.27960745436E+01	-8.58842285187E+00	-2.27895423335E+01	-8.57397711650E+00	-3.98596099609E+01	-5.34819266976E+00
3.12961000000E+08	-1.25564972487E+01	-1.14408915180E+01	-2.27936898775E+01	-8.80824531226E+00	-2.27868647672E+01	-8.78827259712E+00	-3.98325839067E+01	-5.59123492021E+00
3.20960000000E+08	-1.25618785707E+01	-1.17201032912E+01	-2.27904355487E+01	-9.03258216244E+00	-2.27862809406E+01	-8.99387139351E+00	-3.98413743484E+01	-5.87187943815E+00
3.28959000000E+08	-1.25674621476E+01	-1.20063617103E+01	-2.27877810536E+01	-9.25573963440E+00	-2.27817504651E+01	-9.25695860940E+00	-3.98347300851E+01	-5.83189795921E+00
3.36958000000E+08	-1.25712572976E+01	-1.22822093941E+01	-2.27843263991E+01	-9.49845354264E+00	-2.27803637639E+01	-9.47884498443E+00	-3.98545037855E+01	-6.00006747255E+00
3.44957000000E+08	-1.25757652551E+01	-1.25781577774E+01	-2.27809670473E+01	-9.73169291743E+00	-2.27766043508E+01	-9.71282549001E+00	-3.98689287023E+01	-6.10669165260E+00
3.52956000000E+08	-1.25808558795E+01	-1.28666783582E+01	-2.27803667396E+01	-9.93672811641E+00	-2.27725113871E+01	-9.93126803078E+00	-3.98928428915E+01	-6.22381017235E+00
3.60955000000E+08	-1.25854469655E+01	-1.31507558734E+01	-2.27782952655E+01	-1.01961325827E+01	-2.27732613338E+01	-1.01723073631E+01	-3.99005626923E+01	-6.37099033126E+00
3.68954000000E+08	-1.25895213724E+01	-1.34374744247E+01	-2.27761046903E+01	-1.04299097522E+01	-2.27728847843E+01	-1.04163286873E+01	-3.99204105518E+01	-6.50167938178E+00
3.76953000000E+08	-1.25929009154E+01	-1.37204350717E+01	-2.27741157907E+01	-1.06632966348E+01	-2.27703435105E+01	-1.06456352525E+01	-3.99965770419E+01	-6.67448626511E+00
3.84952000000E+08	-1.25969181595E+01	-1.40012142843E+01	-2.27732281711E+01	-1.09026024766E+01	-2.27676156764E+01	-1.08801663130E+01	-4.00289641375E+01	-6.91183392573E+00
3.92951000000E+08	-1.26011955442E+01	-1.42809320246E+01	-2.27727168886E+01	-1.11361651642E+01	-2.27663902453E+01	-1.11071408399E+01	-4.00866859324E+01	-7.18773948958E+00
4.00950000000E+08	-1.26053285402E+01	-1.45723861030E+01	-2.27708559382E+01	-1.13513528409E+01	-2.27637714196E+01	-1.13315693298E+01	-4.00962878066E+01	-7.58226115617E+00
4.08949000000E+08	-1.26066958345E+01	-1.48355226866E+01	-2.27663776274E+01	-1.15764922937E+01	-2.27593312245E+01	-1.15492094213E+01	-4.01263364598E+01	-7.87625919277E+00
4.16948000000E+08	-1.26115305232E+01	-1.51100366346E+01	-2.27643840098E+01	-1.18038753017E+01	-2.27605034907E+01	-1.17826950600E+01	-4.01793875088E+01	-8.39797954922E+00
4.24947000000E+08	-1.26139515417E+01	-1.53804671248E+01	-2.27612073774E+01	-1.20456793489E+01	-2.27570358872E+01	-1.20073827154E+01	-4.02034564931E+01	-8.79005169329E+00
4.32946000000E+08	-1.26185534788E+01	-1.56484393335E+01	-2.27611189744E+01	-1.22669127236E+01	-2.27522528689E+01	-1.22360032904E+01	-4.02784098086E+01	-9.30844928501E+00
4.40945000000E+08	-1.26219567330E+01	-1.59185890536E+01	-2.27542772269E+01	-1.25090492775E+01	-2.27477218850E+01	-1.24660551126E+01	-4.02641576970E+01	-9.75756337582E+00
4.48944000000E+08	-1.26275611911E+01	-1.61913479030E+01	-2.27544596114E+01	-1.27363436981E+01	-2.27470680044E+01	-1.27130447921E+01	-4.02706680182E+01	-1.00921590843E+01
4.56943000000E+08	-1.26334480634E+01	-1.64487341676E+01	-2.27503218182E+01	-1.29632617861E+01	-2.27437412660E+01	-1.29365210185E+01	-4.02915894533E+01	-1.04640690168E+01
4.64942000000E+08	-1.26368525558E+01	-1.67215598849E+01	-2.27454996367E+01	-1.31943691842E+01	-2.27423575902E+01	-1.31835145632E+01	-4.02661168829E+01	-1.07803214945E+01
4.72941000000E+08	-1.26431453103E+01	-1.69886243355E+01	-2.27461593010E+01	-1.34219244655E+01	-2.27398066942E+01	-1.34239457290E+01	-4.02659385604E+01	-1.12246101889E+01
4.80940000000E+08	-1.26476860071E+01	-1.72699661730E+01	-2.27437063814E+01	-1.36884791312E+01	-2.27389193700E+01	-1.36579295131E+01	-4.03130070029E+01	-1.14935480217E+01
4.88939000000E+08	-1.26526642838E+01	-1.75286372757E+01	-2.27409180677E+01	-1.39222017287E+01	-2.27368237425E+01	-1.38826647128E+01	-4.03049975025E+01	-1.18088289571E+01
4.96938000000E+08	-1.26601510167E+01	-1.78090802478E+01	-2.27383830645E+01	-1.41666569453E+01	-2.27347198712E+01	-1.41181563960E+01	-4.02960593946E+01	-1.18819066919E+01
5.04937000000E+08	-1.26665245438E+01	-1.80843039351E+01	-2.27378632619E+01	-1.43894399142E+01	-2.27357122662E+01	-1.43261311864E+01	-4.03714417850E+01	-1.21513827825E+01
5.12936000000E+08	-1.26723959417E+01	-1.83548920133E+01	-2.27361591112E+01	-1.46006657836E+01	-2.27306381031E+01	-1.45746177074E+01	-4.03607547471E+01	-1.23486053383E+01
5.20935000000E+08	-1.26798185589E+01	-1.86498984111E+01	-2.27323248921E+01	-1.48392484695E+01	-2.27287405770E+01	-1.47733103000E+01	-4.04206320041E+01	-1.25277129900E+01
5.28934000000E+08	-1.26840556713E+01	-1.89265481881E+01	-2.27261309806E+01	-1.50697174617E+01	-2.27227662714E+01	-1.50045878697E+01	-4.04308152103E+01	-1.26627969373E+01
5.36933000000E+08	-1.26886298941E+01	-1.91944814656E+01	-2.27268333585E+01	-1.52821759453E+01	-2.27184114466E+01	-1.52387138605E+01	-4.04670341893E+01	-1.30411728762E+01
5.44932000000E+08	-1.26939723021E+01	-1.94772420504E+01	-2.27225901424E+01	-1.55164069901E+01	-2.27117996068E+01	-1.54808305056E+01	-4.05240136303E+01	-1.30980924819E+01
5.52931000000E+08	-1.26982041799E+01	-1.97585145758E+01	-2.27151890180E+01	-1.57705591867E+01	-2.27097509199E+01	-1.57234696023E+01	-4.05847782318E+01	-1.33649598996E+01
5.60930000000E+08	-1.27014478453E+01	-2.00407063759E+01	-2.27124700953E+01	-1.59982772863E+01	-2.27060458394E+01	-1.59724118867E+01	-4.06285545785E+01	-1.36288887357E+01
5.68929000000E+08	-1.27076110743E+01	-2.03145749976E+01	-2.27107336323E+01	-1.62473630734E+01	-2.27027408389E+01	-1.62164739990E+01	-4.06828188071E+01	-1.40513521943E+01
5.76928000000E+08	-1.27109370567E+01	-2.05855511221E+01	-2.27088777294E+01	-1.64760456220E+01	-2.27019906451E+01	-1.64697730403E+01	-4.07514846204E+01	-1.41667106899E+01
5.84927000000E+08	-1.27146718489E+01	-2.08610616413E+01	-2.27059127461E+01	-1.67260814710E+01	-2.26994131808E+01	-1.67210742561E+01	-4.08331894238E+01	-1.46999615543E+01
5.92926000000E+08	-1.27180510492E+01	-2.11335094467E+01	-2.27048684339E+01	-1.69895376989E+01	-2.27013787958E+01	-1.69525915065E+01	-4.08546196700E+01	-1.53475974051E+01
6.00925000000E+08	-1.27221633190E+01	-2.13934604908E+01	-2.27035750433E+01	-1.72108608514E+01	-2.26973144558E+01	-1.71638376395E+01	-4.09008659732E+01	-1.55131518524E+01
6.08924000000E+08	-1.27261295334E+01	-2.16692706626E+01	-2.27000977802E+01	-1.74560169814E+01	-2.26938009251E+01	-1.74025122962E+01	-4.09354148893E+01	-1.57824632662E+01
6.16923000000E+08	-1.27312854911E+01	-2.19072675238E+01	-2.26986523883E+01	-1.76829964660E+01	-2.26903886852E+01	-1.76347653914E+01	-4.09840995222E+01	-1.63382668701E+01
6.24922000000E+08	-1.27350670282E+01	-2.21634243789E+01	-2.26962376801E+01	-1.79017254654E+01	-2.26899403787E+01	-1.78647554227E+01	-4.10001952668E+01	-1.65237064463E+01
6.32921000000E+08	-1.27425518988E+01	-2.24316908255E+01	-2.26930586630E+01	-1.81507134412E+01	-2.26879966204E+01	-1.80702908774E+01	-4.10488561920E+01	-1.69956282885E+01
6.40920000000E+08	-1.27478931825E+01	-2.26810872719E+01	-2.26889984593E+01	-1.83753983715E+01	-2.26827647138E+01	-1.83166735571E+01	-4.10912508157E+01	-1.75223460272E+01
6.48919000000E+08	-1.27546317631E+01	-2.29605683839E+01	-2.26850032069E+01	-1.86072946836E+01	-2.26786484726E+01	-1.85482736117E+01	-4.11280902518E+01	-1.76574355298E+01
6.56918000000E+08	-1.27609730368E+01	-2.32176448986E+01	-2.26820371788E+01	-1.88480553944E+01	-2.26751934210E+01	-1.87850684657E+01	-4.11426557727E+01	-1.80318595113E+01
6.64917000000E+08	-1.27682459925E+01	-2.34801726783E+01	-2.26738170365E+01	-1.90918376936E+01	-2.26724573512E+01	-1.90283639634E+01	-4.11939318053E+01	-1.83584800162E+01
6.72916000000E+08	-1.27754694411E+01	-2.37472385752E+01	-2.26734023514E+01	-1.93317721628E+01	-2.26709430932E+01	-1.92784041140E+01	-4.12777056027E+01	-1.85695963192E+01
6.80915000000E+08	-1.27814569006E+01	-2.40208339667E+01	-2.26733234907E+01	-1.95643619041E+01	-2.26659798394E+01	-1.95272950393E+01	-4.12887415200E+01	-1.89474486351E+01
6.88914000000E+08	-1.27875005430E+01	-2.42945059105E+01	-2.26674762192E+01	-1.98087078807E+01	-2.26621048089E+01	-1.97696039439E+01	-4.13327470816E+01	-1.92103741083E+01
6.96913000000E+08	-1.27952373196E+01	-2.45631602753E+01	-2.26675033605E+01	-2.00484156623E+01	-2.26627079785E+01	-1.99951098215E+01	-4.13858834215E+01	-1.93854074694E+01
7.04912000000E+08	-1.28014565383E+01	-2.48327656461E+01	-2.26658466594E+01	-2.02891409600E+01	-2.26599784742E+01	-2.02464501021E+01	-4.14386842233E+01	-1.97165316947E+01
7.12911000000E+08	-1.28063262998E+01	-2.51116987637E+01	-2.26623701366E+01	-2.05260496487E+01	-2.26587668166E+01	-2.04708947055E+01	-4.14839109233E+01	-1.98169054795E+01
7.20910000000E+08	-1.28114245467E+01	-2.53884703966E+01	-2.26595777689E+01	-2.07502803267E+01	-2.26553874276E+01	-2.07006854988E+01	-4.15349455512E+01	-2.00937732322E+01
7.28909000000E+08	-1.28175245783E+01	-2.56617888344E+01	-2.26564280001E+01	-2.09927855497E+01	-2.26536889916E+01	-2.09256941384E+01	-4.16267902775E+01	-2.06256689283E+01
7.36908000000E+08	-1.28220149362E+01	-2.59294254068E+01	-2.26529694709E+01	-2.12318485511E+01	-2.26470839735E+01	-2.11801795262E+01	-4.16846647657E+01	-2.08610021914E+01
7.44907000000E+08	-1.28260885732E+01	-2.61961045369E+01	-2.26482005595E+01	-2.14824331648E+01	-2.26423781375E+01	-2.13928204876E+01	-4.17222697759E+01	-2.12609638324E+01
7.52906000000E+08	-1.28317993525E+01	-2.64527486842E+01	-2.26433997375E+01	-2.17121623053E+01	-2.26372755724E+01	-2.16532795180E+01	-4.18212842274E+01	-2.17344098862E+01
7.60905000000E+08	-1.28348963628E+01	-2.67265780412E+01	-2.26413234451E+01	-2.19618744265E+01	-2.26317208809E+01	-2.18941989083E+01	-4.19014145399E+01	-2.19261473431E+01
7.68904000000E+08	-1.28397400429E+01	-2.69836438151E+01	-2.26383043483E+01	-2.21859521838E+01	-2.26287042793E+01	-2.21566940276E+01	-4.19454971559E+01	-2.21218868266E+01
7.76903000000E+08	-1.28446127341E+01	-2.72461056528E+01	-2.26338109518E+01	-2.24418172556E+01	-2.26245211451E+01	-2.23863506767E+01	-4.20284879691E+01	-2.23275125288E+01
7.84902000000E+08	-1.28489988784E+01	-2.75137982174E+01	-2.26298527427E+01	-2.26984993144E+01	-2.26231319886E+01	-2.26347432019E+01	-4.21110111708E+01	-2.28298272545E+01
7.92901000000E+08	-1.28546183783E+01	-2.77520754976E+01	-2.26281216045E+01	-2.29533621277E+01	-2.26226598803E+01	-2.28961752842E+01	-4.21729022059E+01	-2.30327422471E+01
8.00900000000E+08	-1.28601878921E+01	-2.80151133195E+01	-2.26291959448E+01	-2.31852463284E+01	-2.26238827234E+01	-2.31299793163E+01	-4.22156467079E+01	-2.35387725092E+01
8.08899000000E+08	-1.28652191425E+01	-2.82599486532E+01	-2.26249938521E+01	-2.34249143948E+01	-2.26220690372E+01	-2.33690657910E+01	-4.22949802941E+01	-2.39947662183E+01
8.16898000000E+08	-1.28720006147E+01	-2.85155073496E+01	-2.26226932714E+01	-2.36704074736E+01	-2.26204981600E+01	-2.35895224366E+01	-4.23927991063E+01	-2.39820383520E+01
8.24897000000E+08	-1.28773859078E+01	-2.87665423705E+01	-2.26196097548E+01	-2.38981766383E+01	-2.26191703281E+01	-2.38353826513E+01	-4.24414678658E+01	-2.47569817207E+01
8.32896000000E+08	-1.28849422680E+01	-2.90184279166E+01	-2.26189725744E+01	-2.41213463223E+01	-2.26147378889E+01	-2.40418391202E+01	-4.25632153817E+01	-2.46848926143E+01
8.40895000000E+08	-1.28910920501E+01	-2.92828596038E+01	-2.26144816361E+01	-2.43544225673E+01	-2.26103576542E+01	-2.42687667854E+01	-4.26314251931E+01	-2.54303361104E+01
8.48894000000E+08	-1.28986788025E+01	-2.95449996578E+01	-2.26111541024E+01	-2.45978843629E+01	-2.26069310033E+01	-2.44981287920E+01	-4.27246284664E+01	-2.57115745248E+01
8.56893000000E+08	-1.29054442379E+01	-2.98080133391E+01	-2.26073158592E+01	-2.48329210374E+01	-2.26001428322E+01	-2.47331245974E+01	-4.27889511584E+01	-2.60990331500E+01
8.64892000000E+08	-1.29122502673E+01	-3.00700486354E+01	-2.26034039375E+01	-2.50776328493E+01	-2.25908862290E+01	-2.49865688897E+01	-4.28383446231E+01	-2.66860461956E+01
8.72891000000E+08	-1.29187463545E+01	-3.03360143957E+01	-2.25963821247E+01	-2.53119009639E+01	-2.25845570953E+01	-2.52420195558E+01	-4.28941025024E+01	-2.73067383143E+01
8.80890000000E+08	-1.29243896476E+01	-3.06030427385E+01	-2.25938993864E+01	-2.55735537959E+01	-2.25804224626E+01	-2.54962928429E+01	-4.29802701902E+01	-2.77451333531E+01
8.88889000000E+08	-1.29309656429E+01	-3.08621335054E+01	-2.25890325625E+01	-2.58113444441E+01	-2.25772473397E+01	-2.57412269677E+01	-4.30605849761E+01	-2.81904223883E+01
8.96888000000E+08	-1.29373464205E+01	-3.11274487806E+01	-2.25889396838E+01	-2.60837573488E+01	-2.25778706784E+01	-2.60142634169E+01	-4.31224530233E+01	-2.84892840196E+01
9.04887000000E+08	-1.29421879473E+01	-3.13894662847E+01	-2.25828350015E+01	-2.63291802109E+01	-2.25761793313E+01	-2.62647636880E+01	-4.31577632902E+01	-2.90989670049E+01
9.12886000000E+08	-1.29480505978E+01	-3.16560053937E+01	-2.25787652777E+01	-2.65731819645E+01	-2.25745979340E+01	-2.65229051176E+01	-4.32318510541E+01	-2.92336581052E+01
9.20885000000E+08	-1.29537917070E+01	-3.19124211352E+01	-2.25779452937E+01	-2.68179021106E+01	-2.25728154355E+01	-2.67789052310E+01	-4.33135677471E+01	-2.96120972132E+01
9.28884000000E+08	-1.29589915000E+01	-3.21772996672E+01	-2.25743911192E+01	-2.70602410539E+01	-2.25711372078E+01	-2.70040179431E+01	-4.33914879637E+01	-2.98903346240E+01
9.36883000000E+08	-1.29637647179E+01	-3.24228316412E+01	-2.25742520823E+01	-2.73145620645E+01	-2.25711823466E+01	-2.72294537627E+01	-4.34445549911E+01	-2.98975701283E+01
9.44882000000E+08	-1.29704593630E+01	-3.26807872710E+01	-2.25731352514E+01	-2.75517740455E+01	-2.25664380461E+01	-2.74720198765E+01	-4.35130148958E+01	-3.01940672645E+01
9.52881000000E+08	-1.29755989780E+01	-3.29309826633E+01	-2.25706126775E+01	-2.77994662042E+01	-2.25654670015E+01	-2.76975803558E+01	-4.36158016031E+01	-3.06226394869E+01
9.60880000000E+08	-1.29811479262E+01	-3.31859978300E+01	-2.25632714605E+01	-2.80247006888E+01	-2.25592180111E+01	-2.79235579534E+01	-4.37065247257E+01	-3.05966040799E+01
9.68879000000E+08	-1.29879333416E+01	-3.34395361113E+01	-2.25604783021E+01	-2.82854562450E+01	-2.25532399945E+01	-2.81781073941E+01	-4.38310625097E+01	-3.08763841898E+01
9.76878000000E+08	-1.29941948500E+01	-3.36981215320E+01	-2.25589468648E+01	-2.85041658199E+01	-2.25520185679E+01	-2.84325208712E+01	-4.39418424565E+01	-3.10180334264E+01
9.84877000000E+08	-1.30006495383E+01	-3.39512838510E+01	-2.25512146413E+01	-2.87378793340E+01	-2.25459382782E+01	-2.86621563995E+01	-4.40880835805E+01	-3.15080825948E+01
9.92876000000E+08	-1.30083736681E+01	-3.42072668790E+01	-2.25499986975E+01	-2.89991673039E+01	-2.25408673199E+01	-2.89224158723E+01	-4.42523648983E+01	-3.17232323993E+01
1.00087500000E+09	-1.30145479941E+01	-3.44607566487E+01	-2.25456126359E+01	-2.92422777619E+01	-2.25383173294E+01	-2.91768812171E+01	-4.43977238598E+01	-3.22553317871E+01
1.00887400000E+09	-1.30221860001E+01	-3.47153054889E+01	-2.25456337803E+01	-2.95020595216E+01	-2.25364789282E+01	-2.94193194723E+01	-4.45516914003E+01	-3.28104007127E+01
1.01687300000E+09	-1.30288273881E+01	-3.49749247282E+01	-2.25420494704E+01	-2.97456454220E+01	-2.25342432033E+01	-2.96645265793E+01	-4.47157134118E+01	-3.34072049990E+01
1.02487200000E+09	-1.30362108268E+01	-3.52363140768E+01	-2.25401117057E+01	-2.99878015717E+01	-2.25333095797E+01	-2.99097489764E+01	-4.48372923918E+01	-3.38922278152E+01
1.03287100000E+09	-1.30426408338E+01	-3.54941562739E+01	-2.25362123455E+01	-3.02205629602E+01	-2.25296109863E+01	-3.01348191178E+01	-4.49653130401E+01	-3.49157592350E+01
1.04087000000E+09	-1.30494954345E+01	-3.57524535280E+01	-2.25319875519E+01	-3.04531449688E+01	-2.25261958596E+01	-3.03706490506E+01	-4.50670515531E+01	-3.54382810582E+01
1.04886900000E+09	-1.30552532502E+01	-3.60153065823E+01	-2.25283012153E+01	-3.07194224560E+01	-2.25224718933E+01	-3.05939563850E+01	-4.51642664852E+01	-3.62445747028E+01
1.05686800000E+09	-1.30611961297E+01	-3.62776442287E+01	-2.25283046876E+01	-3.09514580818E+01	-2.25175812797E+01	-3.08364096634E+01	-4.52949936724E+01	-3.70399088726E+01
1.06486700000E+09	-1.30679564154E+01	-3.65378754457E+01	-2.25204196357E+01	-3.11986074375E+01	-2.25120673801E+01	-3.10833317957E+01	-4.53828459302E+01	-3.81333700629E+01
1.07286600000E+09	-1.30728209528E+01	-3.67971920130E+01	-2.25182350044E+01	-3.14201013605E+01	-2.25051232401E+01	-3.13223372519E+01	-4.55050209236E+01	-3.86465369591E+01
1.08086500000E+09	-1.30780694031E+01	-3.70588333079E+01	-2.25117341452E+01	-3.16746055808E+01	-2.25002926227E+01	-3.15892290111E+01	-4.54949200207E+01	-3.97508228830E+01
1.08886400000E+09	-1.30846077482E+01	-3.72996553217E+01	-2.25076785090E+01	-3.19273841735E+01	-2.24984772970E+01	-3.18627395487E+01	-4.56028077604E+01	-3.96524482622E+01
1.09686300000E+09	-1.30914332575E+01	-3.75554406349E+01	-2.25059839989E+01	-3.21935317194E+01	-2.24927352028E+01	-3.21289353944E+01	-4.57121088959E+01	-4.05789589571E+01
1.10486200000E+09	-1.30949803622E+01	-3.78140786337E+01	-2.25043408174E+01	-3.24495531313E+01	-2.24934093065E+01	-3.23911853619E+01	-4.57917346847E+01	-4.08579376494E+01
1.11286100000E+09	-1.31011688684E+01	-3.80649242001E+01	-2.24983715557E+01	-3.27024824807E+01	-2.24919098270E+01	-3.26505657401E+01	-4.58501757030E+01	-4.11334181349E+01
1.12086000000E+09	-1.31073582514E+01	-3.83126712302E+01	-2.24974068273E+01	-3.29694292686E+01	-2.24915891965E+01	-3.28961460094E+01	-4.60211191770E+01	-4.13886530990E+01
1.12885900000E+09	-1.31144373168E+01	-3.85684042098E+01	-2.24942503995E+01	-3.32204936954E+01	-2.24905934676E+01	-3.31493467607E+01	-4.61127696651E+01	-4.17870680427E+01
1.13685800000E+09	-1.31208477527E+01	-3.88172711049E+01	-2.24948302990E+01	-3.34562375304E+01	-2.24891022067E+01	-3.33634727695E+01	-4.62386104130E+01	-4.16528095772E+01
1.14485700000E+09	-1.31275537306E+01	-3.90705596079E+01	-2.24916666518E+01	-3.36951429439E+01	-2.24886814375E+01	-3.36032866527E+01	-4.64359868842E+01	-4.22160816416E+01
1.15285600000E+09	-1.31342898638E+01	-3.93262530911E+01	-2.24899552346E+01	-3.39323501478E+01	-2.24859772230E+01	-3.38184858588E+01	-4.66022561098E+01	-4.23797113842E+01
1.16085500000E+09	-1.31408039772E+01	-3.95701958654E+01	-2.24874024060E+01	-3.41788409889E+01	-2.24811228834E+01	-3.40490693959E+01	-4.67763500372E+01	-4.27184565079E+01
1.16885400000E+09	-1.31465563857E+01	-3.98282229262E+01	-2.24864234764E+01	-3.44147601052E+01	-2.24754037005E+01	-3.42804276518E+01	-4.70058329976E+01	-4.29979185236E+01
1.17685300000E+09	-1.31539264291E+01	-4.00832658250E+01	-2.24781208208E+01	-3.46632935416E+01	-2.24673479100E+01	-3.45183602613E+01	-4.72442399104E+01	-4.36460845625E+01
1.18485200000E+09	-1.31604975993E+01	-4.03278762245E+01	-2.24740893842E+01	-3.48963116861E+01	-2.24603199233E+01	-3.47624001223E+01	-4.74685314886E+01	-4.45187969198E+01
1.19285100000E+09	-1.31671984803E+01	-4.05864473261E+01	-2.24706831588E+01	-3.51370209298E+01	-2.24541786053E+01	-3.50575261854E+01	-4.77512250341E+01	-4.55340060734E+01
1.20085000000E+09	-1.31737730066E+01	-4.08461857755E+01	-2.24642736062E+01	-3.54039825241E+01	-2.24485396734E+01	-3.52956356043E+01	-4.79364342844E+01	-4.66812949368E+01
1.20884900000E+09	-1.31813144605E+01	-4.10966357397E+01	-2.24583758014E+01	-3.56520159336E+01	-2.24452785631E+01	-3.55895273663E+01	-4.81711075421E+01	-4.71789520067E+01
1.21684800000E+09	-1.31853326553E+01	-4.13571271180E+01	-2.24553317301E+01	-3.58986246858E+01	-2.24418756826E+01	-3.58324869579E+01	-4.83816177460E+01	-4.92324552465E+01
1.22484700000E+09	-1.31926015005E+01	-4.16090921678E+01	-2.24539742819E+01	-3.61836096988E+01	-2.24435701167E+01	-3.60999990981E+01	-4.85796427223E+01	-5.03340854147E+01
1.23284600000E+09	-1.31984563999E+01	-4.18606478046E+01	-2.24484080157E+01	-3.64508556762E+01	-2.24384770307E+01	-3.63777524599E+01	-4.87155269039E+01	-5.18948146209E+01
1.24084500000E+09	-1.32040768374E+01	-4.21185008202E+01	-2.24456573833E+01	-3.67126965575E+01	-2.24393170134E+01	-3.66040686285E+01	-4.88287330668E+01	-5.30393601918E+01
1.24884400000E+09	-1.32104367302E+01	-4.23699437650E+01	-2.24488971864E+01	-3.69496638542E+01	-2.24391129766E+01	-3.68620751561E+01	-4.89241512850E+01	-5.42611309099E+01
1.25684300000E+09	-1.32177201808E+01	-4.26100691588E+01	-2.24429270257E+01	-3.71978091312E+01	-2.24401563749E+01	-3.70894395003E+01	-4.90692034039E+01	-5.57380760842E+01
1.26484200000E+09	-1.32239512406E+01	-4.28592276745E+01	-2.24419227278E+01	-3.74474538140E+01	-2.24338520456E+01	-3.73285412724E+01	-4.91772197757E+01	-5.65373876933E+01
1.27284100000E+09	-1.32298800847E+01	-4.31077338612E+01	-2.24405897818E+01	-3.77070288595E+01	-2.24306000074E+01	-3.75662900369E+01	-4.93662313601E+01	-5.73977154920E+01
1.28084000000E+09	-1.32364788318E+01	-4.33571533264E+01	-2.24351061931E+01	-3.79373809710E+01	-2.24263825212E+01	-3.77907675425E+01	-4.94293256478E+01	-5.81324912521E+01
1.28883900000E+09	-1.32434971184E+01	-4.35978404323E+01	-2.24342632962E+01	-3.81710290206E+01	-2.24203419605E+01	-3.80429404400E+01	-4.95633116310E+01	-5.87074325629E+01
1.29683800000E+09	-1.32505663691E+01	-4.38539929116E+01	-2.24304325742E+01	-3.84256142386E+01	-2.24149811017E+01	-3.82921907221E+01	-4.98110648491E+01	-5.98466699559E+01
1.30483700000E+09	-1.32583525911E+01	-4.40966543341E+01	-2.24244364406E+01	-3.86791946547E+01	-2.24105357780E+01	-3.85550501182E+01	-4.99582390893E+01	-5.98121076996E+01
1.31283600000E+09	-1.32649581122E+01	-4.43398893727E+01	-2.24210812733E+01	-3.89276928027E+01	-2.24062484241E+01	-3.88167774194E+01	-5.02294170179E+01	-6.04322686467E+01
1.32083500000E+09	-1.32726041473E+01	-4.45788147395E+01	-2.24174364347E+01	-3.91556465027E+01	-2.24011092865E+01	-3.90804021113E+01	-5.05893277240E+01	-6.04677565696E+01
1.32883400000E+09	-1.32794170445E+01	-4.48345236482E+01	-2.24134426406E+01	-3.94314572270E+01	-2.24025236197E+01	-3.93528793912E+01	-5.08796708723E+01	-6.19548559103E+01
1.33683300000E+09	-1.32868321649E+01	-4.50856816133E+01	-2.24105400234E+01	-3.96988446994E+01	-2.24013129910E+01	-3.96130472295E+01	-5.12925883899E+01	-6.38444483154E+01
1.34483200000E+09	-1.32938286959E+01	-4.53335637314E+01	-2.24088640637E+01	-3.99613948046E+01	-2.24031303044E+01	-3.98667249172E+01	-5.16140357647E+01	-6.45988500182E+01
1.35283100000E+09	-1.33014788800E+01	-4.55895572275E+01	-2.24089862510E+01	-4.02270071903E+01	-2.24000731316E+01	-4.00892939182E+01	-5.19844087933E+01	-6.69093036932E+01
1.36083000000E+09	-1.33084639935E+01	-4.58438098032E+01	-2.24057461491E+01	-4.04492806158E+01	-2.23974102745E+01	-4.03296308446E+01	-5.23392099543E+01	-6.91581567211E+01
1.36882900000E+09	-1.33155485097E+01	-4.60947410702E+01	-2.24010927343E+01	-4.07076571393E+01	-2.23923329508E+01	-4.05630724910E+01	-5.27659540861E+01	-7.09418331659E+01
1.37682800000E+09	-1.33213506671E+01	-4.63548909092E+01	-2.23984182196E+01	-4.09449457371E+01	-2.23877125324E+01	-4.07768544517E+01	-5.30798890361E+01	-7.43175768324E+01
1.38482700000E+09	-1.33296122525E+01	-4.66109425621E+01	-2.23959048765E+01	-4.11867012158E+01	-2.23804805283E+01	-4.10255272018E+01	-5.33308226885E+01	-7.74093118886E+01
1.39282600000E+09	-1.33347775015E+01	-4.68516921649E+01	-2.23911714794E+01	-4.14238162634E+01	-2.23744206693E+01	-4.12637544124E+01	-5.36160279409E+01	-8.05842122662E+01
1.40082500000E+09	-1.33419413066E+01	-4.71038853519E+01	-2.23859350992E+01	-4.16587829766E+01	-2.23684708795E+01	-4.15301569118E+01	-5.37748702934E+01	-8.43515196381E+01
1.40882400000E+09	-1.33478795458E+01	-4.73554385512E+01	-2.23844155621E+01	-4.19251892612E+01	-2.23628603772E+01	-4.18139523417E+01	-5.37485174781E+01	-8.81883081178E+01
1.41682300000E+09	-1.33542260303E+01	-4.76072788503E+01	-2.23787440851E+01	-4.21781446549E+01	-2.23577968285E+01	-4.20855275299E+01	-5.38500423459E+01	-9.12773680144E+01
1.42482200000E+09	-1.33616727685E+01	-4.78599517289E+01	-2.23725342097E+01	-4.24435031204E+01	-2.23551298333E+01	-4.23644414707E+01	-5.39249183595E+01	-9.32531591924E+01
1.43282100000E+09	-1.33681493480E+01	-4.80982334072E+01	-2.23708376920E+01	-4.27215505137E+01	-2.23519912300E+01	-4.26417440875E+01	-5.39157918372E+01	-9.63316547868E+01
1.44082000000E+09	-1.33735897085E+01	-4.83470889133E+01	-2.23642319715E+01	-4.29750336727E+01	-2.23549842028E+01	-4.29113828470E+01	-5.39292534535E+01	-9.95285327132E+01
1.44881900000E+09	-1.33816045855E+01	-4.85943708080E+01	-2.23653232294E+01	-4.32305005310E+01	-2.23558670421E+01	-4.31635503916E+01	-5.40503655360E+01	-1.01398725415E+02
1.45681800000E+09	-1.33871113453E+01	-4.88258421582E+01	-2.23612411521E+01	-4.34962111157E+01	-2.23555184249E+01	-4.34130904109E+01	-5.40335349723E+01	-1.03100439267E+02
1.46481700000E+09	-1.33952887199E+01	-4.90801913241E+01	-2.23609476562E+01	-4.37557822787E+01	-2.23549119678E+01	-4.36347783966E+01	-5.42504415826E+01	-1.05484128821E+02
1.47281600000E+09	-1.34010573859E+01	-4.93313045862E+01	-2.23612186539E+01	-4.40161905770E+01	-2.23552862886E+01	-4.38732005443E+01	-5.43965867838E+01	-1.07425168864E+02
1.48081500000E+09	-1.34071540098E+01	-4.95688818071E+01	-2.23585423167E+01	-4.42587719253E+01	-2.23502156572E+01	-4.41032164720E+01	-5.45248118233E+01	-1.10327497550E+02
1.48881400000E+09	-1.34148343633E+01	-4.98211414466E+01	-2.23572369169E+01	-4.44974856146E+01	-2.23455524263E+01	-4.43233093185E+01	-5.48703240419E+01	-1.13262868394E+02
1.49681300000E+09	-1.34220042742E+01	-5.00664651026E+01	-2.23557320350E+01	-4.47431690671E+01	-2.23404114826E+01	-4.45550328472E+01	-5.49095280815E+01	-1.16572899378E+02
1.50481200000E+09	-1.34289779446E+01	-5.03116702824E+01	-2.23495949652E+01	-4.49956275680E+01	-2.23344364851E+01	-4.48145632441E+01	-5.51258492944E+01	-1.21077475418E+02
1.51281100000E+09	-1.34353012752E+01	-5.05600119005E+01	-2.23442453102E+01	-4.52191227123E+01	-2.23268883791E+01	-4.50720735695E+01	-5.52239396211E+01	-1.25053755624E+02
1.52081000000E+09	-1.34431470616E+01	-5.07981531590E+01	-2.23410727035E+01	-4.54539034386E+01	-2.23205517923E+01	-4.53425123992E+01	-5.53555969673E+01	-1.29514419034E+02
1.52880900000E+09	-1.34499883098E+01	-5.10423449116E+01	-2.23350518551E+01	-4.57227657253E+01	-2.23158183499E+01	-4.55995271750E+01	-5.53809300838E+01	-1.34653791388E+02
1.53680800000E+09	-1.34563718188E+01	-5.13015514814E+01	-2.23291568459E+01	-4.59906756560E+01	-2.23127704632E+01	-4.58700923570E+01	-5.49368551270E+01	-1.40001439654E+02
1.54480700000E+09	-1.34631452159E+01	-5.15412255423E+01	-2.23264368773E+01	-4.62322203357E+01	-2.23093849374E+01	-4.61320239260E+01	-5.48397717706E+01	-1.43052314412E+02
1.55280600000E+09	-1.34703064347E+01	-5.17915131956E+01	-2.23226029427E+01	-4.65126609257E+01	-2.23101625964E+01	-4.64098826690E+01	-5.44191603854E+01	-1.47875482048E+02
1.56080500000E+09	-1.34761560590E+01	-5.20229413705E+01	-2.23192860669E+01	-4.67698281807E+01	-2.23078955239E+01	-4.66734336532E+01	-5.41252752968E+01	-1.51631654682E+02
1.56880400000E+09	-1.34838020976E+01	-5.22827630565E+01	-2.23167745200E+01	-4.70477264246E+01	-2.23075642339E+01	-4.69098047904E+01	-5.36916845763E+01	-1.55345968925E+02
1.57680300000E+09	-1.34896493185E+01	-5.25271859771E+01	-2.23161995326E+01	-4.72829411571E+01	-2.23062974751E+01	-4.71411506079E+01	-5.33818220180E+01	-1.57092043150E+02
1.58480200000E+09	-1.34983571125E+01	-5.27717445214E+01	-2.23141737629E+01	-4.75567989625E+01	-2.23049762738E+01	-4.74021390077E+01	-5.29340718980E+01	-1.59897054834E+02
1.59280100000E+09	-1.35046490680E+01	-5.30180118802E+01	-2.23087032541E+01	-4.78071667499E+01	-2.22999463358E+01	-4.76363246291E+01	-5.26968538571E+01	-1.60792428625E+02
1.60080000000E+09	-1.35120094564E+01	-5.32565766429E+01	-2.23068398719E+01	-4.80347791070E+01	-2.22945819097E+01	-4.78697573072E+01	-5.22776088362E+01	-1.62998795832E+02
1.60879900000E+09	-1.35202871740E+01	-5.35048638713E+01	-2.23060480229E+01	-4.82984788276E+01	-2.22870239000E+01	-4.81107480321E+01	-5.19214167441E+01	-1.64533539428E+02
1.61679800000E+09	-1.35259456967E+01	-5.37550157310E+01	-2.23032559890E+01	-4.85365212826E+01	-2.22809900546E+01	-4.83755526295E+01	-5.17973795528E+01	-1.65649831061E+02
1.62479700000E+09	-1.35324959560E+01	-5.39993295509E+01	-2.22972971287E+01	-4.87949461607E+01	-2.22778566337E+01	-4.86526926424E+01	-5.15191382019E+01	-1.67291260032E+02
1.63279600000E+09	-1.35383958761E+01	-5.42444261820E+01	-2.22936274775E+01	-4.90680958585E+01	-2.22730098311E+01	-4.89322580476E+01	-5.13177883935E+01	-1.67679074212E+02
1.64079500000E+09	-1.35461266623E+01	-5.44812451542E+01	-2.22901692341E+01	-4.93022247764E+01	-2.22691865769E+01	-4.92120120441E+01	-5.12020296098E+01	-1.70355421412E+02
1.64879400000E+09	-1.35522056641E+01	-5.47272724798E+01	-2.22825893273E+01	-4.95813814892E+01	-2.22707018694E+01	-4.94721160564E+01	-5.09531584284E+01	-1.71969670369E+02
1.65679300000E+09	-1.35592600697E+01	-5.49818029110E+01	-2.22814731229E+01	-4.98432503807E+01	-2.22700023447E+01	-4.97274033811E+01	-5.07664831498E+01	-1.73348880494E+02
1.66479200000E+09	-1.35656129211E+01	-5.52112766493E+01	-2.22835933312E+01	-5.01184044861E+01	-2.22703582525E+01	-4.99896906891E+01	-5.06233929251E+01	-1.75419017288E+02
1.67279100000E+09	-1.35733016661E+01	-5.54585179289E+01	-2.22795216206E+01	-5.03719459799E+01	-2.22704930596E+01	-5.02326124966E+01	-5.03864333922E+01	-1.77302398539E+02
1.68079000000E+09	-1.35793586968E+01	-5.57040036776E+01	-2.22767296117E+01	-5.06330089620E+01	-2.22711772647E+01	-5.04689479345E+01	-5.01378263032E+01	-1.78906957359E+02
1.68878900000E+09	-1.35857946730E+01	-5.59530783853E+01	-2.22764960466E+01	-5.08733640722E+01	-2.22669578942E+01	-5.06998135690E+01	-4.99132001911E+01	1.79685651985E+02
1.69678800000E+09	-1.35910365057E+01	-5.61835423129E+01	-2.22756853407E+01	-5.11403872276E+01	-2.22649511823E+01	-5.09228612700E+01	-4.96872108919E+01	1.77608439201E+02
1.70478700000E+09	-1.35984294043E+01	-5.64354787340E+01	-2.22727952940E+01	-5.13763077116E+01	-2.22583901174E+01	-5.11496395741E+01	-4.94041914725E+01	1.75681289054E+02
1.71278600000E+09	-1.36045129716E+01	-5.66729948933E+01	-2.22682893342E+01	-5.15988964428E+01	-2.22473396522E+01	-5.13870165378E+01	-4.91267011807E+01	1.74682911967E+02
1.72078500000E+09	-1.36114268361E+01	-5.69145469351E+01	-2.22635473335E+01	-5.18637437188E+01	-2.22380662931E+01	-5.16720823006E+01	-4.87910829542E+01	1.73280639234E+02
1.72878400000E+09	-1.36177908461E+01	-5.71473169865E+01	-2.22604749766E+01	-5.20977222243E+01	-2.22331507504E+01	-5.19294962760E+01	-4.85500536657E+01	1.72030111846E+02
1.73678300000E+09	-1.36254766870E+01	-5.73914193231E+01	-2.22513722513E+01	-5.23540934485E+01	-2.22267902110E+01	-5.22090930189E+01	-4.82661777668E+01	1.70981313943E+02
1.74478200000E+09	-1.36313087115E+01	-5.76179796702E+01	-2.22489710357E+01	-5.26079732490E+01	-2.22226741266E+01	-5.24969319832E+01	-4.79559750778E+01	1.70501195272E+02
1.75278100000E+09	-1.36393512249E+01	-5.78658930542E+01	-2.22435504007E+01	-5.28898921020E+01	-2.22192621854E+01	-5.27967349350E+01	-4.76879471903E+01	1.69359532524E+02
1.76078000000E+09	-1.36461700214E+01	-5.81079007123E+01	-2.22411235715E+01	-5.31516821717E+01	-2.22190359734E+01	-5.30817175470E+01	-4.74989807580E+01	1.68888835173E+02
1.76877900000E+09	-1.36539544198E+01	-5.83540285041E+01	-2.22367655488E+01	-5.34070681863E+01	-2.22221709981E+01	-5.33457140154E+01	-4.72500106121E+01	1.68156782119E+02
1.77677800000E+09	-1.36612537252E+01	-5.85872391579E+01	-2.22361449267E+01	-5.36872018860E+01	-2.22239368636E+01	-5.36178379708E+01	-4.70794495199E+01	1.67425140599E+02
1.78477700000E+09	-1.36677049011E+01	-5.88290528529E+01	-2.22345386602E+01	-5.39659505514E+01	-2.22270109107E+01	-5.38536465252E+01	-4.68398903602E+01	1.66892726675E+02
1.79277600000E+09	-1.36753316199E+01	-5.90674837023E+01	-2.22350488317E+01	-5.42243655483E+01	-2.22252780152E+01	-5.40937360604E+01	-4.66665971373E+01	1.66427892614E+02
1.80077500000E+09	-1.36820762050E+01	-5.93156140739E+01	-2.22322658236E+01	-5.44726514745E+01	-2.22239653507E+01	-5.42938117413E+01	-4.64896586814E+01	1.66023946867E+02
1.80877400000E+09	-1.36891481617E+01	-5.95446796300E+01	-2.22298248510E+01	-5.47153611775E+01	-2.22228935517E+01	-5.45294391031E+01	-4.63114681382E+01	1.64983990526E+02
1.81677300000E+09	-1.36960469757E+01	-5.97871086245E+01	-2.22292445528E+01	-5.49469534223E+01	-2.22153969928E+01	-5.47678603223E+01	-4.61835214628E+01	1.64587966744E+02
1.82477200000E+09	-1.37020495961E+01	-6.00310594876E+01	-2.22253534522E+01	-5.51876167390E+01	-2.22075554689E+01	-5.50001466474E+01	-4.60250989728E+01	1.63602949551E+02
1.83277100000E+09	-1.37072637643E+01	-6.02600283857E+01	-2.22215786945E+01	-5.54260185107E+01	-2.22002290360E+01	-5.52403202048E+01	-4.58433303361E+01	1.62623823084E+02
1.84077000000E+09	-1.37140284332E+01	-6.04997767213E+01	-2.22158678525E+01	-5.56757018222E+01	-2.21928720196E+01	-5.55121823842E+01	-4.57067501634E+01	1.62000628246E+02
1.84876900000E+09	-1.37219358445E+01	-6.07446589052E+01	-2.22131804264E+01	-5.59347707032E+01	-2.21871451846E+01	-5.57926148898E+01	-4.55055067375E+01	1.61249622845E+02
1.85676800000E+09	-1.37283294413E+01	-6.09833338327E+01	-2.22063366146E+01	-5.61922457976E+01	-2.21803626292E+01	-5.60578147889E+01	-4.53527147185E+01	1.60198635549E+02
1.86476700000E+09	-1.37341026779E+01	-6.12239105596E+01	-2.22017003477E+01	-5.64644327739E+01	-2.21812848644E+01	-5.63482727160E+01	-4.51549105870E+01	1.59407494377E+02
1.87276600000E+09	-1.37409575906E+01	-6.14604527615E+01	-2.21981986823E+01	-5.67285517222E+01	-2.21791168591E+01	-5.66029260244E+01	-4.49926540607E+01	1.59050419002E+02
1.88076500000E+09	-1.37484444888E+01	-6.17031025153E+01	-2.21948451883E+01	-5.69953168284E+01	-2.21768579507E+01	-5.68730922481E+01	-4.47810354993E+01	1.58067468433E+02
1.88876400000E+09	-1.37554048581E+01	-6.19329984338E+01	-2.21934375041E+01	-5.72647977104E+01	-2.21762756936E+01	-5.71531692876E+01	-4.45933554511E+01	1.57343270046E+02
1.89676300000E+09	-1.37620950518E+01	-6.21772526085E+01	-2.21920108311E+01	-5.75211923045E+01	-2.21746259646E+01	-5.73883407128E+01	-4.44361024694E+01	1.56736678577E+02
1.90476200000E+09	-1.37697756542E+01	-6.24058511839E+01	-2.21901951483E+01	-5.77873910329E+01	-2.21769358208E+01	-5.76459555291E+01	-4.42292770794E+01	1.55966210264E+02
1.91276100000E+09	-1.37745265941E+01	-6.26527075696E+01	-2.21898105657E+01	-5.80341730278E+01	-2.21731342595E+01	-5.78676010128E+01	-4.40774540318E+01	1.55503470608E+02
1.92076000000E+09	-1.37844258173E+01	-6.28770530003E+01	-2.21884447169E+01	-5.82859587628E+01	-2.21690421199E+01	-5.81138488131E+01	-4.38703990522E+01	1.55362660676E+02
1.92875900000E+09	-1.37906054363E+01	-6.31322524971E+01	-2.21839232099E+01	-5.85127029171E+01	-2.21644869869E+01	-5.83576949520E+01	-4.37151457211E+01	1.54902643006E+02
1.93675800000E+09	-1.37989471598E+01	-6.33638892777E+01	-2.21827394192E+01	-5.87740319300E+01	-2.21580349242E+01	-5.86067400529E+01	-4.35691452975E+01	1.54474722685E+02
1.94475700000E+09	-1.38075039721E+01	-6.36018218965E+01	-2.21758359337E+01	-5.90154368704E+01	-2.21539296623E+01	-5.88667306253E+01	-4.34031652202E+01	1.53986028851E+02
1.95275600000E+09	-1.38116806014E+01	-6.38513489680E+01	-2.21698825451E+01	-5.92736562565E+01	-2.21482761198E+01	-5.91516811772E+01	-4.32699774782E+01	1.53603092183E+02
1.96075500000E+09	-1.38191197068E+01	-6.40928029554E+01	-2.21649187206E+01	-5.95191012115E+01	-2.21432293962E+01	-5.94226193260E+01	-4.31222601873E+01	1.53443028637E+02
1.96875400000E+09	-1.38278781583E+01	-6.43279828949E+01	-2.21635140643E+01	-5.98023850599E+01	-2.21434013234E+01	-5.96854517688E+01	-4.29800857348E+01	1.53151168843E+02
1.97675300000E+09	-1.38336722898E+01	-6.45766524374E+01	-2.21572903937E+01	-6.00743090719E+01	-2.21414661161E+01	-5.99777073885E+01	-4.28931335754E+01	1.52624827100E+02
1.98475200000E+09	-1.38406697196E+01	-6.48057247309E+01	-2.21549820439E+01	-6.03518938889E+01	-2.21425872899E+01	-6.02254923431E+01	-4.27980414274E+01	1.52129963293E+02
1.99275100000E+09	-1.38463247490E+01	-6.50589997939E+01	-2.21540043789E+01	-6.06364653814E+01	-2.21447851306E+01	-6.04801280737E+01	-4.26827206864E+01	1.51780110433E+02
2.00075000000E+09	-1.38542130793E+01	-6.52934104754E+01	-2.21541946339E+01	-6.08911666987E+01	-2.21425840245E+01	-6.07127995704E+01	-4.25783270267E+01	1.51166120754E+02
2.00874900000E+09	-1.38605171742E+01	-6.55258519383E+01	-2.21530343471E+01	-6.11534642680E+01	-2.21414450651E+01	-6.09605528164E+01	-4.24312257242E+01	1.50796219901E+02
2.01674800000E+09	-1.38679589596E+01	-6.57601216136E+01	-2.21533926760E+01	-6.14102897287E+01	-2.21392435969E+01	-6.11745222446E+01	-4.23168474217E+01	1.50149648058E+02
2.02474700000E+09	-1.38741261057E+01	-6.59986691029E+01	-2.21535762083E+01	-6.16499410541E+01	-2.21336896570E+01	-6.14208293611E+01	-4.22120552329E+01	1.49470671452E+02
2.03274600000E+09	-1.38806354817E+01	-6.62306351875E+01	-2.21518031096E+01	-6.18855828469E+01	-2.21247577780E+01	-6.16575390516E+01	-4.20807109098E+01	1.48985183398E+02
2.04074500000E+09	-1.38871328599E+01	-6.64746702317E+01	-2.21464325564E+01	-6.21174629641E+01	-2.21194651024E+01	-6.19109690699E+01	-4.19376051696E+01	1.48466799913E+02
2.04874400000E+09	-1.38952095870E+01	-6.67116267292E+01	-2.21439213130E+01	-6.23644263108E+01	-2.21122340838E+01	-6.21641352564E+01	-4.18003141398E+01	1.47711301053E+02
2.05674300000E+09	-1.39031384417E+01	-6.69366303751E+01	-2.21381892573E+01	-6.26037286703E+01	-2.21045309684E+01	-6.24688936055E+01	-4.16856101650E+01	1.47255059964E+02
2.06474200000E+09	-1.39091628035E+01	-6.71761180808E+01	-2.21307844275E+01	-6.28587825560E+01	-2.21005974445E+01	-6.27512857278E+01	-4.15462990823E+01	1.46900184045E+02
2.07274100000E+09	-1.39177451927E+01	-6.74137398751E+01	-2.21259478492E+01	-6.31184534953E+01	-2.20985201791E+01	-6.30420747520E+01	-4.14031318673E+01	1.46274809125E+02
2.08074000000E+09	-1.39257641244E+01	-6.76470254623E+01	-2.21203082812E+01	-6.33804749037E+01	-2.20973231874E+01	-6.33328619398E+01	-4.12835059457E+01	1.46023493304E+02
2.08873900000E+09	-1.39327228195E+01	-6.78883399532E+01	-2.21156131025E+01	-6.36564548658E+01	-2.20997415432E+01	-6.36135472721E+01	-4.11658372768E+01	1.45721722698E+02
2.09673800000E+09	-1.39411800283E+01	-6.81280316148E+01	-2.21136952910E+01	-6.39601680423E+01	-2.20983541803E+01	-6.38702054094E+01	-4.10103193235E+01	1.45344125278E+02
2.10473700000E+09	-1.39484593379E+01	-6.83593800018E+01	-2.21114387424E+01	-6.42107829365E+01	-2.21027818567E+01	-6.41277330966E+01	-4.08869097053E+01	1.44955925577E+02
2.11273600000E+09	-1.39543619288E+01	-6.85937900570E+01	-2.21110925129E+01	-6.45050284320E+01	-2.21073216983E+01	-6.43554122508E+01	-4.07680616379E+01	1.44732461979E+02
2.12073500000E+09	-1.39638180001E+01	-6.88320726907E+01	-2.21121526702E+01	-6.47617576849E+01	-2.21052804327E+01	-6.45721211191E+01	-4.06618800223E+01	1.44438226214E+02
2.12873400000E+09	-1.39677720802E+01	-6.90729515586E+01	-2.21125868920E+01	-6.50245637786E+01	-2.21051504435E+01	-6.47855540178E+01	-4.05550248607E+01	1.43992263226E+02
2.13673300000E+09	-1.39756284052E+01	-6.93116045853E+01	-2.21132590851E+01	-6.52376002161E+01	-2.20967246105E+01	-6.50153736962E+01	-4.04701283864E+01	1.43834927654E+02
2.14473200000E+09	-1.39815096107E+01	-6.95465134411E+01	-2.21118288070E+01	-6.54875917794E+01	-2.20901225011E+01	-6.52232701493E+01	-4.03586303148E+01	1.43361238861E+02
2.15273100000E+09	-1.39889810764E+01	-6.97821702958E+01	-2.21078032231E+01	-6.57295278718E+01	-2.20790200626E+01	-6.54904346282E+01	-4.02402214588E+01	1.43096234369E+02
2.16073000000E+09	-1.39963213969E+01	-7.00158551037E+01	-2.21071293148E+01	-6.59702935681E+01	-2.20726854443E+01	-6.57606992694E+01	-4.01823286139E+01	1.42518979384E+02
2.16872900000E+09	-1.40023492788E+01	-7.02629310509E+01	-2.20969034664E+01	-6.61876956631E+01	-2.20654235179E+01	-6.60291678734E+01	-4.00935230847E+01	1.42208958274E+02
2.17672800000E+09	-1.40094272434E+01	-7.04894213009E+01	-2.20878059272E+01	-6.64682832181E+01	-2.20587411698E+01	-6.63234560523E+01	-3.99754476399E+01	1.41780247846E+02
2.18472700000E+09	-1.40168822894E+01	-7.07291921050E+01	-2.20848013334E+01	-6.67194110755E+01	-2.20553250749E+01	-6.66156450555E+01	-3.99107474205E+01	1.41302678149E+02
2.19272600000E+09	-1.40228884314E+01	-7.09571698527E+01	-2.20799776629E+01	-6.70109730956E+01	-2.20534864157E+01	-6.69207392968E+01	-3.98147764917E+01	1.40922008418E+02
2.20072500000E+09	-1.40329769342E+01	-7.11917700345E+01	-2.20767527319E+01	-6.72811825687E+01	-2.20559132059E+01	-6.72151347755E+01	-3.96791137492E+01	1.40452897841E+02
2.20872400000E+09	-1.40383943340E+01	-7.14209628675E+01	-2.20724053474E+01	-6.75643336442E+01	-2.20578739426E+01	-6.74876910487E+01	-3.96132454445E+01	1.40035065258E+02
2.21672300000E+09	-1.40451625974E+01	-7.16518589657E+01	-2.20718138525E+01	-6.78485095366E+01	-2.20608183769E+01	-6.77251817477E+01	-3.94835003276E+01	1.39681804218E+02
2.22472200000E+09	-1.40545504490E+01	-7.18880461321E+01	-2.20703102944E+01	-6.81280718440E+01	-2.20656278634E+01	-6.79774208107E+01	-3.94037424880E+01	1.39408084559E+02
2.23272100000E+09	-1.40610846807E+01	-7.21303261338E+01	-2.20737757930E+01	-6.84051048578E+01	-2.20648992272E+01	-6.82266808774E+01	-3.92713547450E+01	1.38831210334E+02
2.24072000000E+09	-1.40703882465E+01	-7.23708485744E+01	-2.20715954717E+01	-6.86657439808E+01	-2.20641369326E+01	-6.84311865942E+01	-3.92009106454E+01	1.38393448038E+02
2.24871900000E+09	-1.40777519884E+01	-7.26025593414E+01	-2.20729315251E+01	-6.89094540456E+01	-2.20559165261E+01	-6.86644219656E+01	-3.90938676400E+01	1.38192021383E+02
2.25671800000E+09	-1.40860674667E+01	-7.28619336027E+01	-2.20729119285E+01	-6.91458426250E+01	-2.20492972668E+01	-6.89101621698E+01	-3.89788431953E+01	1.37835216037E+02
2.26471700000E+09	-1.40918016008E+01	-7.30967650517E+01	-2.20704243899E+01	-6.93854155839E+01	-2.20426141514E+01	-6.91472560347E+01	-3.88849093787E+01	1.37474503927E+02
2.27271600000E+09	-1.40988512943E+01	-7.33382660799E+01	-2.20633390141E+01	-6.96170174963E+01	-2.20355716047E+01	-6.94153457416E+01	-3.88062635424E+01	1.37132692305E+02
2.28071500000E+09	-1.41064948918E+01	-7.35848426659E+01	-2.20589726712E+01	-6.98676844186E+01	-2.20292768583E+01	-6.96902332638E+01	-3.87044592909E+01	1.36809742703E+02
2.28871400000E+09	-1.41137527234E+01	-7.38263980085E+01	-2.20536326540E+01	-7.01249117494E+01	-2.20214574380E+01	-6.99593851468E+01	-3.86230291448E+01	1.36358516674E+02
2.29671300000E+09	-1.41198911688E+01	-7.40724046658E+01	-2.20440669828E+01	-7.03739058958E+01	-2.20183776490E+01	-7.02784743325E+01	-3.85108877338E+01	1.36165860701E+02
2.30471200000E+09	-1.41257558672E+01	-7.43174519031E+01	-2.20366372798E+01	-7.06700311297E+01	-2.20181992773E+01	-7.05515385052E+01	-3.84511528667E+01	1.35914336301E+02
2.31271100000E+09	-1.41321162850E+01	-7.45525042227E+01	-2.20349047646E+01	-7.09572452818E+01	-2.20169064105E+01	-7.08431253926E+01	-3.83571237373E+01	1.35555179017E+02
2.32071000000E+09	-1.41371585118E+01	-7.47876111084E+01	-2.20338815864E+01	-7.12331115290E+01	-2.20203091637E+01	-7.11193710478E+01	-3.82580818500E+01	1.35131746564E+02
2.32870900000E+09	-1.41430495343E+01	-7.50253297935E+01	-2.20331050293E+01	-7.15394707182E+01	-2.20195560142E+01	-7.13656300402E+01	-3.82027985268E+01	1.34855245930E+02
2.33670800000E+09	-1.41492752374E+01	-7.52657093427E+01	-2.20315854624E+01	-7.18143083930E+01	-2.20211293827E+01	-7.16091077425E+01	-3.80993157026E+01	1.34331390814E+02
2.34470700000E+09	-1.41555305930E+01	-7.54908486188E+01	-2.20315285669E+01	-7.20588599103E+01	-2.20189676795E+01	-7.18505439552E+01	-3.80473031377E+01	1.33965800082E+02
2.35270600000E+09	-1.41623768311E+01	-7.57262682786E+01	-2.20317398777E+01	-7.23173730044E+01	-2.20177763403E+01	-7.20864283558E+01	-3.79504619970E+01	1.33585072268E+02
2.36070500000E+09	-1.41699535697E+01	-7.59634383935E+01	-2.20312927742E+01	-7.25807467175E+01	-2.20118453345E+01	-7.23395248136E+01	-3.78747157445E+01	1.33188994416E+02
2.36870400000E+09	-1.41747565396E+01	-7.61868281034E+01	-2.20305779498E+01	-7.28007687988E+01	-2.20056483035E+01	-7.25728905535E+01	-3.77921997875E+01	1.32819463398E+02
2.37670300000E+09	-1.41814315902E+01	-7.64155581371E+01	-2.20250298370E+01	-7.30625999514E+01	-2.20002874848E+01	-7.28369963289E+01	-3.77014128223E+01	1.32464771832E+02
2.38470200000E+09	-1.41903962617E+01	-7.66489340860E+01	-2.20213762306E+01	-7.32928094380E+01	-2.19938882378E+01	-7.31366097813E+01	-3.76339583152E+01	1.32154509715E+02
2.39270100000E+09	-1.41973741644E+01	-7.68754709016E+01	-2.20166367366E+01	-7.35323373653E+01	-2.19900967843E+01	-7.33844801014E+01	-3.75395003621E+01	1.31781048206E+02
2.40070000000E+09	-1.42045548543E+01	-7.71084490517E+01	-2.20091977647E+01	-7.38125902354E+01	-2.19851316060E+01	-7.36766045961E+01	-3.74650817044E+01	1.31391387569E+02
2.40869900000E+09	-1.42127155782E+01	-7.73437664914E+01	-2.20050203035E+01	-7.40829812766E+01	-2.19843017658E+01	-7.39629429491E+01	-3.73733803846E+01	1.31120717329E+02
2.41669800000E+09	-1.42196745964E+01	-7.75885638286E+01	-2.20023937355E+01	-7.43714727886E+01	-2.19846639335E+01	-7.42302291245E+01	-3.72829026766E+01	1.30767352096E+02
2.42469700000E+09	-1.42271969404E+01	-7.78224780427E+01	-2.19987155688E+01	-7.46432015634E+01	-2.19858243943E+01	-7.45003981897E+01	-3.72043563115E+01	1.30508594481E+02
2.43269600000E+09	-1.42338061561E+01	-7.80697743994E+01	-2.19970811883E+01	-7.49399845079E+01	-2.19831426124E+01	-7.47437964209E+01	-3.71141751663E+01	1.30167844023E+02
2.44069500000E+09	-1.42425435929E+01	-7.82922954276E+01	-2.19963580764E+01	-7.52031840414E+01	-2.19850874216E+01	-7.49950225884E+01	-3.70416307131E+01	1.29906801028E+02
2.44869400000E+09	-1.42468473348E+01	-7.85371281360E+01	-2.19968043887E+01	-7.54785676994E+01	-2.19821043357E+01	-7.52260025032E+01	-3.69578302946E+01	1.29401759301E+02
2.45669300000E+09	-1.42552425957E+01	-7.87642997169E+01	-2.19996048328E+01	-7.57196037391E+01	-2.19809957962E+01	-7.54519796146E+01	-3.68947162623E+01	1.29195167808E+02
2.46469200000E+09	-1.42611807143E+01	-7.90066893603E+01	-2.19955675063E+01	-7.59606302374E+01	-2.19731572938E+01	-7.57069757863E+01	-3.68226005457E+01	1.28939120066E+02
2.47269100000E+09	-1.42682911685E+01	-7.92489641689E+01	-2.19971046608E+01	-7.62118987607E+01	-2.19679756872E+01	-7.59655223869E+01	-3.67603794129E+01	1.28615139854E+02
2.48069000000E+09	-1.42741154055E+01	-7.94787656641E+01	-2.19906532342E+01	-7.64283452604E+01	-2.19615210224E+01	-7.62200004786E+01	-3.66830310622E+01	1.28258119295E+02
2.48868900000E+09	-1.42808497973E+01	-7.97150751517E+01	-2.19870278457E+01	-7.66794965132E+01	-2.19533417341E+01	-7.65007723932E+01	-3.66125819979E+01	1.27911905608E+02
2.49668800000E+09	-1.42877925096E+01	-7.99478931621E+01	-2.19815322408E+01	-7.69126327944E+01	-2.19485443901E+01	-7.67795547462E+01	-3.65482414616E+01	1.27497924722E+02
2.50468700000E+09	-1.42954875476E+01	-8.01704207116E+01	-2.19804759212E+01	-7.71928346955E+01	-2.19464400025E+01	-7.70670755864E+01	-3.64596838597E+01	1.27114891891E+02
2.51268600000E+09	-1.42978132473E+01	-8.04147321826E+01	-2.19679817048E+01	-7.74748105332E+01	-2.19479178707E+01	-7.73738287578E+01	-3.64239119171E+01	1.26964218941E+02
2.52068500000E+09	-1.43061393743E+01	-8.06381132252E+01	-2.19623877029E+01	-7.77576583783E+01	-2.19446163165E+01	-7.76704827506E+01	-3.63256134200E+01	1.26538457985E+02
2.52868400000E+09	-1.43135637640E+01	-8.08829213283E+01	-2.19550948399E+01	-7.81113734675E+01	-2.19484538029E+01	-7.79457018898E+01	-3.62804459931E+01	1.26161871364E+02
2.53668300000E+09	-1.43220800914E+01	-8.10894313305E+01	-2.19571066275E+01	-7.83929789357E+01	-2.19509451846E+01	-7.81934942740E+01	-3.61586027307E+01	1.25871112985E+02
2.54468200000E+09	-1.43261347726E+01	-8.13405296376E+01	-2.19596416060E+01	-7.86664656698E+01	-2.19536038625E+01	-7.84203485345E+01	-3.60975203004E+01	1.25639240916E+02
2.55268100000E+09	-1.43349661238E+01	-8.15580938356E+01	-2.19600266543E+01	-7.89610546274E+01	-2.19517418938E+01	-7.86675728771E+01	-3.60149245115E+01	1.25159537198E+02
2.56068000000E+09	-1.43447160539E+01	-8.18119967851E+01	-2.19647579617E+01	-7.92345599410E+01	-2.19560868023E+01	-7.89254464054E+01	-3.59686776579E+01	1.24824335866E+02
2.56867900000E+09	-1.43496995250E+01	-8.20291186619E+01	-2.19691570781E+01	-7.94564919582E+01	-2.19472662837E+01	-7.91440463531E+01	-3.58747344269E+01	1.24628226735E+02
2.57667800000E+09	-1.43580085828E+01	-8.22745431027E+01	-2.19685412990E+01	-7.97135879182E+01	-2.19403459437E+01	-7.93803933423E+01	-3.57830700996E+01	1.24384383225E+02
2.58467700000E+09	-1.43654959839E+01	-8.25094952331E+01	-2.19680382845E+01	-7.99308249372E+01	-2.19291310512E+01	-7.96559407230E+01	-3.57639950711E+01	1.24092306856E+02
2.59267600000E+09	-1.43707389061E+01	-8.27396076075E+01	-2.19685554986E+01	-8.01793170752E+01	-2.19239515729E+01	-7.99231856941E+01	-3.56896704929E+01	1.23645656492E+02
2.60067500000E+09	-1.43822516533E+01	-8.29908940859E+01	-2.19633914604E+01	-8.04227638592E+01	-2.19168059153E+01	-8.01649282438E+01	-3.55901425992E+01	1.23410330104E+02
2.60867400000E+09	-1.43885545625E+01	-8.32184137795E+01	-2.19486870133E+01	-8.06506810527E+01	-2.19078650692E+01	-8.04777769494E+01	-3.55981458536E+01	1.23042359158E+02
2.61667300000E+09	-1.43937218722E+01	-8.34872862734E+01	-2.19454059116E+01	-8.09095864433E+01	-2.19063775392E+01	-8.07747778675E+01	-3.55133365966E+01	1.22839386604E+02
2.62467200000E+09	-1.44014328007E+01	-8.36962164847E+01	-2.19391792561E+01	-8.11681121649E+01	-2.19098830135E+01	-8.10824936920E+01	-3.54474017836E+01	1.22523127912E+02
2.63267100000E+09	-1.44101620124E+01	-8.39334304930E+01	-2.19305599353E+01	-8.14516073523E+01	-2.19117737981E+01	-8.13815564285E+01	-3.53898915762E+01	1.22145768784E+02
2.64067000000E+09	-1.44142288765E+01	-8.41852633768E+01	-2.19253377318E+01	-8.17521141953E+01	-2.19071813368E+01	-8.16140489844E+01	-3.53271216234E+01	1.21756849551E+02
2.64866900000E+09	-1.44226300855E+01	-8.44235178533E+01	-2.19187486428E+01	-8.20338278291E+01	-2.19134485881E+01	-8.18927760640E+01	-3.52750446044E+01	1.21485745619E+02
2.65666800000E+09	-1.44272911763E+01	-8.46534490614E+01	-2.19179403133E+01	-8.23354787044E+01	-2.19168910292E+01	-8.21213610569E+01	-3.52147689131E+01	1.20984573979E+02
2.66466700000E+09	-1.44347298647E+01	-8.48876337105E+01	-2.19211903921E+01	-8.26466598408E+01	-2.19145362992E+01	-8.23617475527E+01	-3.51508348018E+01	1.20757251959E+02
2.67266600000E+09	-1.44419056732E+01	-8.51189807067E+01	-2.19240785880E+01	-8.29255251726E+01	-2.19186914731E+01	-8.25881488697E+01	-3.50670837634E+01	1.20307201945E+02
2.68066500000E+09	-1.44500543170E+01	-8.53500949319E+01	-2.19298569132E+01	-8.31563616476E+01	-2.19088910582E+01	-8.28347047934E+01	-3.50203849834E+01	1.19925191389E+02
2.68866400000E+09	-1.44535221998E+01	-8.55807578910E+01	-2.19283026756E+01	-8.34466095248E+01	-2.19030048216E+01	-8.30697376507E+01	-3.49429229803E+01	1.19719583210E+02
2.69666300000E+09	-1.44643567511E+01	-8.58036481225E+01	-2.19282282103E+01	-8.36710829292E+01	-2.18969596383E+01	-8.33721983745E+01	-3.48397195937E+01	1.19168666916E+02
2.70466200000E+09	-1.44696258570E+01	-8.60469340813E+01	-2.19234459174E+01	-8.39113619979E+01	-2.18907457799E+01	-8.36088273919E+01	-3.47684513068E+01	1.18842402596E+02
2.71266100000E+09	-1.44761102136E+01	-8.62656028836E+01	-2.19208601172E+01	-8.41059323253E+01	-2.18829405020E+01	-8.38782758104E+01	-3.47579528515E+01	1.18751542107E+02
2.72066000000E+09	-1.44860587724E+01	-8.64869725219E+01	-2.19202094955E+01	-8.43968445827E+01	-2.18800870090E+01	-8.41744398821E+01	-3.46498921557E+01	1.18429030139E+02
2.72865900000E+09	-1.44919068247E+01	-8.67289583274E+01	-2.19121391160E+01	-8.46360577501E+01	-2.18761737417E+01	-8.44545756765E+01	-3.46044103588E+01	1.18180472617E+02
2.73665800000E+09	-1.44983786885E+01	-8.69596314023E+01	-2.19050082843E+01	-8.49157031691E+01	-2.18742486524E+01	-8.47641861147E+01	-3.45425804085E+01	1.18063656950E+02
2.74465700000E+09	-1.45073753407E+01	-8.72077559418E+01	-2.19019442736E+01	-8.51785233238E+01	-2.18744387675E+01	-8.50254273685E+01	-3.44771606690E+01	1.17641516962E+02
2.75265600000E+09	-1.45147755104E+01	-8.74503532234E+01	-2.18931628626E+01	-8.54794199345E+01	-2.18762461226E+01	-8.52899530658E+01	-3.44346935359E+01	1.17341826831E+02
2.76065500000E+09	-1.45206774153E+01	-8.76617688522E+01	-2.18961145123E+01	-8.57929068740E+01	-2.18797204596E+01	-8.55418737763E+01	-3.43452515563E+01	1.17166897511E+02
2.76865400000E+09	-1.45289230883E+01	-8.79082007200E+01	-2.18939863387E+01	-8.60428837610E+01	-2.18801491502E+01	-8.57896133697E+01	-3.43160628245E+01	1.16931159447E+02
2.77665300000E+09	-1.45372344196E+01	-8.81085164731E+01	-2.18958072147E+01	-8.63274608363E+01	-2.18749363419E+01	-8.60314716956E+01	-3.42559538977E+01	1.16399953133E+02
2.78465200000E+09	-1.45449686205E+01	-8.83723908636E+01	-2.18997395467E+01	-8.65910514028E+01	-2.18751167125E+01	-8.62468256168E+01	-3.42089820188E+01	1.16182286190E+02
2.79265100000E+09	-1.45503169409E+01	-8.86182178882E+01	-2.18992362635E+01	-8.68302758324E+01	-2.18658206967E+01	-8.65249915833E+01	-3.41818456316E+01	1.15836844646E+02
2.80065000000E+09	-1.45550480639E+01	-8.88540636991E+01	-2.18947165427E+01	-8.70559680858E+01	-2.18623766192E+01	-8.67527582303E+01	-3.41350578223E+01	1.15544852240E+02
2.80864900000E+09	-1.45625597898E+01	-8.90643448652E+01	-2.18962686176E+01	-8.72816324064E+01	-2.18583910287E+01	-8.69918170779E+01	-3.40782369009E+01	1.15213610329E+02
2.81664800000E+09	-1.45693476569E+01	-8.93051509792E+01	-2.18933124624E+01	-8.75302842427E+01	-2.18556539877E+01	-8.73334677160E+01	-3.39918209763E+01	1.14733706368E+02
2.82464700000E+09	-1.45738116891E+01	-8.95352362202E+01	-2.18842135146E+01	-8.77933516266E+01	-2.18473540383E+01	-8.75577403111E+01	-3.39222418044E+01	1.14264332871E+02
2.83264600000E+09	-1.45799080661E+01	-8.97525526481E+01	-2.18806830211E+01	-8.80517008580E+01	-2.18458059775E+01	-8.78500782825E+01	-3.38605408523E+01	1.13913383884E+02
2.84064500000E+09	-1.45879677795E+01	-8.99908045280E+01	-2.18694704377E+01	-8.83388656988E+01	-2.18426248255E+01	-8.81166589632E+01	-3.38085978105E+01	1.13662245198E+02
2.84864400000E+09	-1.45954250155E+01	-9.02291204643E+01	-2.18662884639E+01	-8.86197224188E+01	-2.18459863384E+01	-8.84628156795E+01	-3.37530218150E+01	1.13175788028E+02
2.85664300000E+09	-1.46037916687E+01	-9.04449088611E+01	-2.18613866604E+01	-8.88929013552E+01	-2.18404580409E+01	-8.87090705771E+01	-3.36611157444E+01	1.13119854567E+02
2.86464200000E+09	-1.46081525819E+01	-9.06933312295E+01	-2.18603816494E+01	-8.91664346319E+01	-2.18432109176E+01	-8.89703407911E+01	-3.36037694976E+01	1.12581991202E+02
2.87264100000E+09	-1.46163604353E+01	-9.09160924861E+01	-2.18613104385E+01	-8.94699705245E+01	-2.18466240450E+01	-8.91898466275E+01	-3.35174037584E+01	1.12554485047E+02
2.88064000000E+09	-1.46195984813E+01	-9.11425682541E+01	-2.18656183252E+01	-8.97537441529E+01	-2.18429766251E+01	-8.94304180614E+01	-3.34563197844E+01	1.12315915895E+02
2.88863900000E+09	-1.46299978528E+01	-9.13704889137E+01	-2.18672147952E+01	-9.00332964857E+01	-2.18412607160E+01	-8.97066077398E+01	-3.33907886083E+01	1.12001616033E+02
2.89663800000E+09	-1.46361212516E+01	-9.16046534888E+01	-2.18706377742E+01	-9.03142496507E+01	-2.18364082440E+01	-8.99210136737E+01	-3.33518274682E+01	1.11912056592E+02
2.90463700000E+09	-1.46460222528E+01	-9.18653181270E+01	-2.18690831563E+01	-9.05455497116E+01	-2.18365797759E+01	-9.01962652037E+01	-3.32910520585E+01	1.11689538441E+02
2.91263600000E+09	-1.46504290876E+01	-9.20914360979E+01	-2.18641007687E+01	-9.07450055594E+01	-2.18278702427E+01	-9.04594500444E+01	-3.32454505150E+01	1.11600878029E+02
2.92063500000E+09	-1.46553956539E+01	-9.23200450397E+01	-2.18692396473E+01	-9.10197310478E+01	-2.18200503997E+01	-9.07249636006E+01	-3.31786072768E+01	1.11425659774E+02
2.92863400000E+09	-1.46606030706E+01	-9.25570751871E+01	-2.18593123566E+01	-9.12359564753E+01	-2.18170912857E+01	-9.10242521246E+01	-3.31625277715E+01	1.10931393361E+02
2.93663300000E+09	-1.46708149814E+01	-9.27736345887E+01	-2.18561216280E+01	-9.15045933416E+01	-2.18166388267E+01	-9.12705206693E+01	-3.31281560532E+01	1.10729270347E+02
2.94463200000E+09	-1.46752856970E+01	-9.29865572892E+01	-2.18460924031E+01	-9.17479921943E+01	-2.18134878427E+01	-9.15407224188E+01	-3.30963806408E+01	1.10463254095E+02
2.95263100000E+09	-1.46817254436E+01	-9.32259726671E+01	-2.18440698676E+01	-9.20098848080E+01	-2.18167352559E+01	-9.18306316374E+01	-3.30455281869E+01	1.10017954430E+02
2.96063000000E+09	-1.46902227469E+01	-9.34568337134E+01	-2.18400513782E+01	-9.22893226559E+01	-2.18112439771E+01	-9.20775357114E+01	-3.30227174341E+01	1.09852478486E+02
2.96862900000E+09	-1.46946712844E+01	-9.36860918195E+01	-2.18343636476E+01	-9.25700443664E+01	-2.18119382125E+01	-9.23800068164E+01	-3.29863693423E+01	1.09326739968E+02
2.97662800000E+09	-1.47042064226E+01	-9.39202445395E+01	-2.18369722320E+01	-9.28295450722E+01	-2.18110303600E+01	-9.26248952878E+01	-3.29308500068E+01	1.08852113666E+02
2.98462700000E+09	-1.47083519252E+01	-9.41445732081E+01	-2.18345488652E+01	-9.31460014179E+01	-2.18100239200E+01	-9.28845268344E+01	-3.28581907433E+01	1.08404413997E+02
2.99262600000E+09	-1.47199159431E+01	-9.43548581843E+01	-2.18306934957E+01	-9.34009941170E+01	-2.18083696759E+01	-9.31038528552E+01	-3.28282072304E+01	1.08119885510E+02
3.00062500000E+09	-1.47250661164E+01	-9.46089940965E+01	-2.18280366116E+01	-9.37155008623E+01	-2.18023340634E+01	-9.33723502520E+01	-3.27329855573E+01	1.07636552026E+02
3.00862400000E+09	-1.47307553234E+01	-9.48271036951E+01	-2.18315511427E+01	-9.39496798450E+01	-2.17996714818E+01	-9.36284202246E+01	-3.26869892444E+01	1.07240480769E+02
3.01662300000E+09	-1.47400822830E+01	-9.50472454084E+01	-2.18340007029E+01	-9.41703475746E+01	-2.17964620297E+01	-9.38781847333E+01	-3.26163044748E+01	1.07033704716E+02
3.02462200000E+09	-1.47476769012E+01	-9.52899839166E+01	-2.18239293540E+01	-9.44531382877E+01	-2.17870823885E+01	-9.41632623375E+01	-3.25605013183E+01	1.06721837145E+02
3.03262100000E+09	-1.47557302389E+01	-9.55289412692E+01	-2.18168491683E+01	-9.46987313776E+01	-2.17846973149E+01	-9.44541232793E+01	-3.24965914384E+01	1.06346017863E+02
3.04062000000E+09	-1.47661216644E+01	-9.57792099887E+01	-2.18081990605E+01	-9.49712810750E+01	-2.17776029256E+01	-9.47585468909E+01	-3.24197581070E+01	1.06069923612E+02
3.04861900000E+09	-1.47711186330E+01	-9.59942859851E+01	-2.18069620895E+01	-9.52513298442E+01	-2.17785284157E+01	-9.50312675967E+01	-3.23380014142E+01	1.05780642759E+02
3.05661800000E+09	-1.47768971400E+01	-9.62531878641E+01	-2.18060269642E+01	-9.55376557937E+01	-2.17832054013E+01	-9.53486854222E+01	-3.22914418263E+01	1.05734307123E+02
3.06461700000E+09	-1.47856665065E+01	-9.64736386266E+01	-2.17969222980E+01	-9.58473261230E+01	-2.17819216402E+01	-9.55741286436E+01	-3.22335727323E+01	1.05741467103E+02
3.07261600000E+09	-1.47939472951E+01	-9.67115531376E+01	-2.17982864764E+01	-9.61450596540E+01	-2.17823240501E+01	-9.58402300556E+01	-3.21857293862E+01	1.05525832736E+02
3.08061500000E+09	-1.47994820122E+01	-9.69423712445E+01	-2.18025484970E+01	-9.64234481141E+01	-2.17824554786E+01	-9.60771585665E+01	-3.21590641515E+01	1.05391798305E+02
3.08861400000E+09	-1.48026851128E+01	-9.71790171313E+01	-2.18054050303E+01	-9.67248940278E+01	-2.17799247852E+01	-9.63048679288E+01	-3.21087895024E+01	1.05252964531E+02
3.09661300000E+09	-1.48095199732E+01	-9.74225372512E+01	-2.18121135259E+01	-9.69497063671E+01	-2.17815663377E+01	-9.65421500050E+01	-3.20701049326E+01	1.04992646391E+02
3.10461200000E+09	-1.48191176371E+01	-9.76388201222E+01	-2.18119404561E+01	-9.72275365479E+01	-2.17810453694E+01	-9.67740654226E+01	-3.20822084611E+01	1.04745872496E+02
3.11261100000E+09	-1.48238908880E+01	-9.78833203985E+01	-2.18205995293E+01	-9.74347160014E+01	-2.17681351981E+01	-9.70505175389E+01	-3.20575959473E+01	1.04308816080E+02
3.12061000000E+09	-1.48311939738E+01	-9.80942872465E+01	-2.18151122045E+01	-9.76300861819E+01	-2.17604962370E+01	-9.72733628210E+01	-3.20185410022E+01	1.04022956905E+02
3.12860900000E+09	-1.48374089847E+01	-9.83232623831E+01	-2.18176984842E+01	-9.78269459432E+01	-2.17574864498E+01	-9.75375323559E+01	-3.19817124348E+01	1.03774983916E+02
3.13660800000E+09	-1.48411955055E+01	-9.85504286977E+01	-2.18088470641E+01	-9.80412184273E+01	-2.17503666526E+01	-9.77926992876E+01	-3.19634758890E+01	1.03320087596E+02
3.14460700000E+09	-1.48496248304E+01	-9.87881124668E+01	-2.17947717989E+01	-9.82666745083E+01	-2.17455368056E+01	-9.80841747308E+01	-3.19140519168E+01	1.02863707783E+02
3.15260600000E+09	-1.48532483790E+01	-9.90092999780E+01	-2.17881261062E+01	-9.85266827614E+01	-2.17419029844E+01	-9.83877071962E+01	-3.18649548644E+01	1.02623490658E+02
3.16060500000E+09	-1.48642320521E+01	-9.92465972151E+01	-2.17731332519E+01	-9.88228636836E+01	-2.17337000101E+01	-9.86805104442E+01	-3.18261026598E+01	1.02088422133E+02
3.16860400000E+09	-1.48705780148E+01	-9.94716173413E+01	-2.17630371292E+01	-9.90892514252E+01	-2.17399248726E+01	-9.89608908645E+01	-3.17476845583E+01	1.01623532010E+02
3.17660300000E+09	-1.48821860805E+01	-9.97123794246E+01	-2.17528051964E+01	-9.94321412528E+01	-2.17436044330E+01	-9.92521129081E+01	-3.16936665894E+01	1.01110179902E+02
3.18460200000E+09	-1.48845974971E+01	-9.99238450143E+01	-2.17548112717E+01	-9.97892032752E+01	-2.17404604987E+01	-9.95136437596E+01	-3.16442926536E+01	1.00778262826E+02
3.19260100000E+09	-1.48927633694E+01	-1.00158097583E+02	-2.17548560317E+01	-1.00074547425E+02	-2.17467004902E+01	-9.97650483140E+01	-3.15688803340E+01	1.00511261696E+02
3.20060000000E+09	-1.48966306814E+01	-1.00395308887E+02	-2.17564088601E+01	-1.00407050529E+02	-2.17472430913E+01	-1.00006098994E+02	-3.15039119974E+01	1.00332079224E+02
3.20859900000E+09	-1.49081041557E+01	-1.00621952143E+02	-2.17647467095E+01	-1.00718325078E+02	-2.17431255424E+01	-1.00262235467E+02	-3.14339387958E+01	1.00101128327E+02
3.21659800000E+09	-1.49157455806E+01	-1.00866175681E+02	-2.17726145931E+01	-1.00966179221E+02	-2.17397037592E+01	-1.00490777863E+02	-3.13746125454E+01	9.98390050597E+01
3.22459700000E+09	-1.49244275950E+01	-1.01117820977E+02	-2.17825527863E+01	-1.01210111402E+02	-2.17346526621E+01	-1.00730055000E+02	-3.13167286095E+01	9.97213195978E+01
3.23259600000E+09	-1.49296881906E+01	-1.01347451135E+02	-2.17807622003E+01	-1.01446455846E+02	-2.17324935073E+01	-1.00996918148E+02	-3.12622949581E+01	9.94230594142E+01
3.24059500000E+09	-1.49343744514E+01	-1.01611361247E+02	-2.17874167456E+01	-1.01627127014E+02	-2.17260194302E+01	-1.01230707651E+02	-3.12130116217E+01	9.94207789477E+01
3.24859400000E+09	-1.49423856198E+01	-1.01811010155E+02	-2.17768380552E+01	-1.01871426249E+02	-2.17196928611E+01	-1.01512347947E+02	-3.12030919095E+01	9.92563460900E+01
3.25659300000E+09	-1.49456726514E+01	-1.02057953817E+02	-2.17699488871E+01	-1.02083648527E+02	-2.17177906067E+01	-1.01796307297E+02	-3.11343972768E+01	9.90312442091E+01
3.26459200000E+09	-1.49511328928E+01	-1.02294946058E+02	-2.17676215639E+01	-1.02319326506E+02	-2.17142580993E+01	-1.02092913764E+02	-3.11319478320E+01	9.87934848940E+01
3.27259100000E+09	-1.49584955047E+01	-1.02523859912E+02	-2.17577451016E+01	-1.02586205964E+02	-2.17131940652E+01	-1.02360745019E+02	-3.10850353134E+01	9.85709857771E+01
3.28059000000E+09	-1.49625438732E+01	-1.02762075831E+02	-2.17528467665E+01	-1.02827355794E+02	-2.17114664871E+01	-1.02604719413E+02	-3.10695615664E+01	9.84590962187E+01
3.28858900000E+09	-1.49698055523E+01	-1.02974335061E+02	-2.17452999307E+01	-1.03105992530E+02	-2.17094037185E+01	-1.02877795191E+02	-3.10170504310E+01	9.80029561163E+01
3.29658800000E+09	-1.49734899668E+01	-1.03207401646E+02	-2.17366557364E+01	-1.03445920224E+02	-2.17086812112E+01	-1.03157025381E+02	-3.10145885504E+01	9.77047296875E+01
3.30458700000E+09	-1.49800853078E+01	-1.03457780863E+02	-2.17375188784E+01	-1.03752954628E+02	-2.17070342342E+01	-1.03443747078E+02	-3.09658411293E+01	9.72581776161E+01
3.31258600000E+09	-1.49841807552E+01	-1.03670664742E+02	-2.17349707720E+01	-1.04032772917E+02	-2.17049539376E+01	-1.03695460317E+02	-3.09437671315E+01	9.68585119884E+01
3.32058500000E+09	-1.49929416409E+01	-1.03895640563E+02	-2.17343546208E+01	-1.04328438227E+02	-2.16984441073E+01	-1.03946659104E+02	-3.08996221714E+01	9.65799050648E+01
3.32858400000E+09	-1.50016722901E+01	-1.04135176653E+02	-2.17384472502E+01	-1.04570979422E+02	-2.16930250745E+01	-1.04217278881E+02	-3.08568581044E+01	9.61599087527E+01
3.33658300000E+09	-1.50035820085E+01	-1.04360774981E+02	-2.17398686939E+01	-1.04819585399E+02	-2.16901227434E+01	-1.04460263320E+02	-3.08164349103E+01	9.57273848328E+01
3.34458200000E+09	-1.50172996244E+01	-1.04602045631E+02	-2.17366491814E+01	-1.05057077215E+02	-2.16895573017E+01	-1.04752480787E+02	-3.07699104841E+01	9.54059309614E+01
3.35258100000E+09	-1.50224496804E+01	-1.04815540514E+02	-2.17328625455E+01	-1.05309604162E+02	-2.16847144568E+01	-1.05025805386E+02	-3.07148006244E+01	9.51403142933E+01
3.36058000000E+09	-1.50287504242E+01	-1.05040182420E+02	-2.17263807244E+01	-1.05575305107E+02	-2.16796097323E+01	-1.05291324810E+02	-3.06505977734E+01	9.48082867318E+01
3.36857900000E+09	-1.50366556719E+01	-1.05282401060E+02	-2.17220329271E+01	-1.05878030898E+02	-2.16818265340E+01	-1.05576782253E+02	-3.05982045261E+01	9.46196452045E+01
3.37657800000E+09	-1.50398843579E+01	-1.05530019249E+02	-2.17156067900E+01	-1.06142662140E+02	-2.16816955855E+01	-1.05886199259E+02	-3.05495903149E+01	9.42211576261E+01
3.38457700000E+09	-1.50515561150E+01	-1.05771865224E+02	-2.17147828839E+01	-1.06438521807E+02	-2.16834431863E+01	-1.06164772835E+02	-3.04834725237E+01	9.40783472444E+01
3.39257600000E+09	-1.50587693130E+01	-1.06005411686E+02	-2.17119193118E+01	-1.06750241354E+02	-2.16843885865E+01	-1.06402690096E+02	-3.04476735911E+01	9.38904141777E+01
3.40057500000E+09	-1.50679008781E+01	-1.06237836644E+02	-2.17135300278E+01	-1.07043521834E+02	-2.16843951975E+01	-1.06648252116E+02	-3.03954266757E+01	9.36286323737E+01
3.40857400000E+09	-1.50740547745E+01	-1.06476490115E+02	-2.17153059211E+01	-1.07321399613E+02	-2.16861535314E+01	-1.06912493324E+02	-3.03600354794E+01	9.34150312452E+01
3.41657300000E+09	-1.50838223840E+01	-1.06725468417E+02	-2.17269532933E+01	-1.07609907954E+02	-2.16845117082E+01	-1.07139245369E+02	-3.03315491921E+01	9.32078608160E+01
3.42457200000E+09	-1.50876605359E+01	-1.06954260739E+02	-2.17246348760E+01	-1.07863152109E+02	-2.16796202463E+01	-1.07413871473E+02	-3.03070782137E+01	9.28905696986E+01
3.43257100000E+09	-1.50931916168E+01	-1.07203057722E+02	-2.17281132643E+01	-1.08089086244E+02	-2.16713583940E+01	-1.07654630698E+02	-3.02722879486E+01	9.26647439997E+01
3.44057000000E+09	-1.51007009218E+01	-1.07417914911E+02	-2.17296189062E+01	-1.08295549022E+02	-2.16662763448E+01	-1.07909311048E+02	-3.02355832668E+01	9.24564682263E+01
3.44856900000E+09	-1.51063573690E+01	-1.07662639788E+02	-2.17332351196E+01	-1.08503078022E+02	-2.16586660727E+01	-1.08153995070E+02	-3.02212317477E+01	9.21689025593E+01
3.45656800000E+09	-1.51138790950E+01	-1.07890245832E+02	-2.17248847923E+01	-1.08712542276E+02	-2.16588832130E+01	-1.08455646178E+02	-3.01830780512E+01	9.18009556890E+01
3.46456700000E+09	-1.51189775567E+01	-1.08108400219E+02	-2.17111741028E+01	-1.08925966239E+02	-2.16518832717E+01	-1.08741489811E+02	-3.01436662636E+01	9.14737066082E+01
3.47256600000E+09	-1.51262693542E+01	-1.08348283662E+02	-2.17027170272E+01	-1.09188113709E+02	-2.16499471511E+01	-1.09029414459E+02	-3.00949740256E+01	9.10699664936E+01
3.48056500000E+09	-1.51313478079E+01	-1.08586714813E+02	-2.16889157815E+01	-1.09464838329E+02	-2.16466091650E+01	-1.09295273953E+02	-3.00694848131E+01	9.07069038016E+01
3.48856400000E+09	-1.51408243347E+01	-1.08810827706E+02	-2.16816765825E+01	-1.09791988522E+02	-2.16487868726E+01	-1.09615581388E+02	-3.00070151178E+01	9.03402299461E+01
3.49656300000E+09	-1.51460445767E+01	-1.09046807109E+02	-2.16733740958E+01	-1.10085025209E+02	-2.16486031968E+01	-1.09881013095E+02	-2.99624892246E+01	8.99930598512E+01
3.50456200000E+09	-1.51536162173E+01	-1.09291810942E+02	-2.16743259615E+01	-1.10391265967E+02	-2.16472461310E+01	-1.10128349504E+02	-2.99136086030E+01	8.97573642809E+01
3.51256100000E+09	-1.51605983279E+01	-1.09512525938E+02	-2.16766441432E+01	-1.10726677134E+02	-2.16516093886E+01	-1.10396406602E+02	-2.98669483445E+01	8.94217687588E+01
3.52056000000E+09	-1.51648995618E+01	-1.09751724163E+02	-2.16755882865E+01	-1.11045460238E+02	-2.16492033555E+01	-1.10639168772E+02	-2.98184274203E+01	8.92502167831E+01
3.52855900000E+09	-1.51770058972E+01	-1.09981209622E+02	-2.16826604258E+01	-1.11337960751E+02	-2.16479623619E+01	-1.10918961153E+02	-2.97511785534E+01	8.89479803994E+01
3.53655800000E+09	-1.51815874064E+01	-1.10196877374E+02	-2.16874628325E+01	-1.11582078253E+02	-2.16436037207E+01	-1.11140171880E+02	-2.97059645577E+01	8.87868495771E+01
3.54455700000E+09	-1.51898164941E+01	-1.10445950813E+02	-2.16939109528E+01	-1.11819454429E+02	-2.16457817633E+01	-1.11393979736E+02	-2.96709998156E+01	8.86204057844E+01
3.55255600000E+09	-1.51957009275E+01	-1.10678160123E+02	-2.16977040496E+01	-1.12087915407E+02	-2.16346929151E+01	-1.11624808437E+02	-2.96400099668E+01	8.84048630850E+01
3.56055500000E+09	-1.52036675224E+01	-1.10922924241E+02	-2.16960883614E+01	-1.12268396238E+02	-2.16305911585E+01	-1.11902085549E+02	-2.96020303935E+01	8.82369182299E+01
3.56855400000E+09	-1.52097958725E+01	-1.11167908874E+02	-2.16927382134E+01	-1.12506678491E+02	-2.16247718286E+01	-1.12153572016E+02	-2.95778936932E+01	8.80293767006E+01
3.57655300000E+09	-1.52169613759E+01	-1.11385017093E+02	-2.16857525386E+01	-1.12742726242E+02	-2.16238510470E+01	-1.12480829199E+02	-2.95413997647E+01	8.78379352591E+01
3.58455200000E+09	-1.52222652085E+01	-1.11659897713E+02	-2.16754350849E+01	-1.13016515918E+02	-2.16214764326E+01	-1.12749969631E+02	-2.95185601746E+01	8.76006984561E+01
3.59255100000E+09	-1.52282412450E+01	-1.11886869490E+02	-2.16647287277E+01	-1.13254924946E+02	-2.16165677787E+01	-1.13027821893E+02	-2.95129149056E+01	8.73091205288E+01
3.60055000000E+09	-1.52363323965E+01	-1.12114250066E+02	-2.16621422146E+01	-1.13552270923E+02	-2.16180806479E+01	-1.13299973408E+02	-2.94881885608E+01	8.70580891307E+01
3.60854900000E+09	-1.52403292898E+01	-1.12358566865E+02	-2.16614443016E+01	-1.13891586046E+02	-2.16196370827E+01	-1.13562826860E+02	-2.94649954515E+01	8.66528246751E+01
3.61654800000E+09	-1.52463625983E+01	-1.12609831791E+02	-2.16587916990E+01	-1.14190940987E+02	-2.16222621907E+01	-1.13834597748E+02	-2.94412660051E+01	8.64079793642E+01
3.62454700000E+09	-1.52519716206E+01	-1.12832400634E+02	-2.16606992046E+01	-1.14480032481E+02	-2.16184105267E+01	-1.14079395377E+02	-2.94076401962E+01	8.60235022875E+01
3.63254600000E+09	-1.52558180761E+01	-1.13068687655E+02	-2.16660402773E+01	-1.14773056484E+02	-2.16184373026E+01	-1.14331024827E+02	-2.93606205726E+01	8.55972853212E+01
3.64054500000E+09	-1.52649885682E+01	-1.13300875285E+02	-2.16741347273E+01	-1.15040918783E+02	-2.16158812171E+01	-1.14579192825E+02	-2.93263839581E+01	8.52080676793E+01
3.64854400000E+09	-1.52720356992E+01	-1.13533667947E+02	-2.16798392098E+01	-1.15253822459E+02	-2.16109230597E+01	-1.14856119668E+02	-2.92733904122E+01	8.48093851810E+01
3.65654300000E+09	-1.52768061706E+01	-1.13758534013E+02	-2.16824577410E+01	-1.15450637517E+02	-2.16074131624E+01	-1.15112888810E+02	-2.92188068068E+01	8.44822334865E+01
3.66454200000E+09	-1.52832099124E+01	-1.13985390070E+02	-2.16765320479E+01	-1.15688947982E+02	-2.16020150346E+01	-1.15380761177E+02	-2.91900311533E+01	8.41862101840E+01
3.67254100000E+09	-1.52904560477E+01	-1.14227669053E+02	-2.16688892794E+01	-1.15871986318E+02	-2.15941640971E+01	-1.15626471931E+02	-2.91105560140E+01	8.38755099602E+01
3.68054000000E+09	-1.52952009965E+01	-1.14468464951E+02	-2.16555926696E+01	-1.16125863823E+02	-2.15979767914E+01	-1.15928509341E+02	-2.90558851335E+01	8.36835744490E+01
3.68853900000E+09	-1.53030092349E+01	-1.14679795800E+02	-2.16458500516E+01	-1.16356810406E+02	-2.15896125156E+01	-1.16203071545E+02	-2.90229822398E+01	8.34698669983E+01
3.69653800000E+09	-1.53106017982E+01	-1.14923925987E+02	-2.16308861957E+01	-1.16667570914E+02	-2.15890070104E+01	-1.16481408487E+02	-2.89583718955E+01	8.32544938152E+01
3.70453700000E+09	-1.53139918048E+01	-1.15165995181E+02	-2.16299097366E+01	-1.16993996509E+02	-2.15904033134E+01	-1.16752376110E+02	-2.89246839143E+01	8.30807466101E+01
3.71253600000E+09	-1.53209538389E+01	-1.15381385516E+02	-2.16185611351E+01	-1.17348079240E+02	-2.15935612630E+01	-1.17025972422E+02	-2.88798110057E+01	8.28984030082E+01
3.72053500000E+09	-1.53263009240E+01	-1.15638204453E+02	-2.16163621637E+01	-1.17674641706E+02	-2.15919514108E+01	-1.17323497219E+02	-2.88563021825E+01	8.27825363634E+01
3.72853400000E+09	-1.53355015094E+01	-1.15866936867E+02	-2.16220363997E+01	-1.18012519142E+02	-2.15902583478E+01	-1.17540148722E+02	-2.88286128500E+01	8.26792423020E+01
3.73653300000E+09	-1.53384837365E+01	-1.16098038479E+02	-2.16283066417E+01	-1.18321096996E+02	-2.15912404721E+01	-1.17818186208E+02	-2.87989780619E+01	8.24464333228E+01
3.74453200000E+09	-1.53471140853E+01	-1.16355648457E+02	-2.16419022762E+01	-1.18604002225E+02	-2.15910016851E+01	-1.18076609209E+02	-2.87848417237E+01	8.23066405095E+01
3.75253100000E+09	-1.53516479170E+01	-1.16574461299E+02	-2.16512584709E+01	-1.18854613322E+02	-2.15886399795E+01	-1.18305646605E+02	-2.87724095816E+01	8.20569177512E+01
3.76053000000E+09	-1.53583598801E+01	-1.16818272842E+02	-2.16568293370E+01	-1.19078450354E+02	-2.15851083215E+01	-1.18542738629E+02	-2.87455159264E+01	8.17511128891E+01
3.76852900000E+09	-1.53653113717E+01	-1.17039861461E+02	-2.16683532423E+01	-1.19258645452E+02	-2.15772194562E+01	-1.18810671039E+02	-2.87303816091E+01	8.14760262890E+01
3.77652800000E+09	-1.53708023806E+01	-1.17286352934E+02	-2.16611412242E+01	-1.19424605836E+02	-2.15760422674E+01	-1.19074217290E+02	-2.87168135669E+01	8.10898864422E+01
3.78452700000E+09	-1.53751690607E+01	-1.17525726914E+02	-2.16594131022E+01	-1.19592871881E+02	-2.15698667905E+01	-1.19372050897E+02	-2.86875619288E+01	8.08390358389E+01
3.79252600000E+09	-1.53812869660E+01	-1.17777009671E+02	-2.16484867361E+01	-1.19811524451E+02	-2.15650319096E+01	-1.19683531526E+02	-2.86679357176E+01	8.04026486855E+01
3.80052500000E+09	-1.53877617848E+01	-1.18003048509E+02	-2.16281532605E+01	-1.20056188464E+02	-2.15619310747E+01	-1.19928608493E+02	-2.86285480364E+01	8.00481251721E+01
3.80852400000E+09	-1.53908050055E+01	-1.18242149808E+02	-2.16151495288E+01	-1.20340324428E+02	-2.15592425642E+01	-1.20192406533E+02	-2.86007190007E+01	7.96199293828E+01
3.81652300000E+09	-1.53997310802E+01	-1.18482936365E+02	-2.16036409919E+01	-1.20664950988E+02	-2.15582106313E+01	-1.20476050483E+02	-2.85311866258E+01	7.93403084600E+01
3.82452200000E+09	-1.54053184735E+01	-1.18707692291E+02	-2.15946192068E+01	-1.20975715207E+02	-2.15567241034E+01	-1.20747429928E+02	-2.85018520545E+01	7.89421381372E+01
3.83252100000E+09	-1.54101853488E+01	-1.18941029056E+02	-2.15917411868E+01	-1.21349495775E+02	-2.15607112679E+01	-1.21024231357E+02	-2.84489896800E+01	7.86871005695E+01
3.84052000000E+09	-1.54159767427E+01	-1.19184953198E+02	-2.15950592309E+01	-1.21677467948E+02	-2.15592535275E+01	-1.21289442757E+02	-2.83869539108E+01	7.84340695988E+01
3.84851900000E+09	-1.54220079546E+01	-1.19418771603E+02	-2.16051007837E+01	-1.22001118196E+02	-2.15595339110E+01	-1.21549223707E+02	-2.83427609350E+01	7.81728219591E+01
3.85651800000E+09	-1.54241290913E+01	-1.19652303381E+02	-2.16058812759E+01	-1.22304363834E+02	-2.15617490926E+01	-1.21779930572E+02	-2.83056673467E+01	7.79212960109E+01
3.86451700000E+09	-1.54320773538E+01	-1.19887271479E+02	-2.16152384841E+01	-1.22532038585E+02	-2.15562039836E+01	-1.22054820647E+02	-2.82442585253E+01	7.77395667692E+01
3.87251600000E+09	-1.54403179293E+01	-1.20114323097E+02	-2.16221808460E+01	-1.22779298715E+02	-2.15513161798E+01	-1.22310029718E+02	-2.82165840922E+01	7.75420985939E+01
3.88051500000E+09	-1.54429063076E+01	-1.20357421963E+02	-2.16248186146E+01	-1.22972915957E+02	-2.15462364503E+01	-1.22547061664E+02	-2.81802117926E+01	7.74603119157E+01
3.88851400000E+09	-1.54498884529E+01	-1.20569970469E+02	-2.16198088513E+01	-1.23182900098E+02	-2.15436887148E+01	-1.22850501296E+02	-2.81476933386E+01	7.72733916545E+01
3.89651300000E+09	-1.54595944570E+01	-1.20803034301E+02	-2.16152618528E+01	-1.23390502463E+02	-2.15410729768E+01	-1.23085738501E+02	-2.81176247607E+01	7.70746742659E+01
3.90451200000E+09	-1.54594108583E+01	-1.21054944565E+02	-2.16063704865E+01	-1.23640443099E+02	-2.15402799153E+01	-1.23358390691E+02	-2.81019251692E+01	7.68772503699E+01
3.91251100000E+09	-1.54681202739E+01	-1.21282886707E+02	-2.15928850929E+01	-1.23902063319E+02	-2.15332154121E+01	-1.23646815802E+02	-2.80846272771E+01	7.66558209129E+01
3.92051000000E+09	-1.54753705252E+01	-1.21517436371E+02	-2.15848799848E+01	-1.24198643070E+02	-2.15355223644E+01	-1.23962932760E+02	-2.80689393901E+01	7.63932565669E+01
3.92850900000E+09	-1.54811190460E+01	-1.21761087182E+02	-2.15792897538E+01	-1.24519835951E+02	-2.15330168267E+01	-1.24221389094E+02	-2.80486435710E+01	7.61396937944E+01
3.93650800000E+09	-1.54862963432E+01	-1.22002355139E+02	-2.15828115273E+01	-1.24845946881E+02	-2.15333245308E+01	-1.24513685515E+02	-2.80455290652E+01	7.57819388690E+01
3.94450700000E+09	-1.54934235446E+01	-1.22232940139E+02	-2.15793866532E+01	-1.25169018895E+02	-2.15316181195E+01	-1.24747490475E+02	-2.80130482327E+01	7.55247387423E+01
3.95250600000E+09	-1.54947242397E+01	-1.22472681519E+02	-2.15897353132E+01	-1.25466383973E+02	-2.15304430799E+01	-1.24978824270E+02	-2.79882660121E+01	7.51140340790E+01
3.96050500000E+09	-1.55041542120E+01	-1.22700093721E+02	-2.15936081204E+01	-1.25705034311E+02	-2.15345103228E+01	-1.25266157525E+02	-2.79663755785E+01	7.48575821943E+01
3.96850400000E+09	-1.55121951726E+01	-1.22948692376E+02	-2.16125441478E+01	-1.25993162082E+02	-2.15257638406E+01	-1.25510730035E+02	-2.79206434798E+01	7.45155417261E+01
3.97650300000E+09	-1.55125399244E+01	-1.23185485445E+02	-2.16093741122E+01	-1.26166544676E+02	-2.15217519114E+01	-1.25767962607E+02	-2.78808669025E+01	7.42035667912E+01
3.98450200000E+09	-1.55228129232E+01	-1.23416071151E+02	-2.16147260018E+01	-1.26369118241E+02	-2.15189723793E+01	-1.26039399645E+02	-2.78494658500E+01	7.37754042058E+01
3.99250100000E+09	-1.55227055851E+01	-1.23648765704E+02	-2.16073382175E+01	-1.26549162742E+02	-2.15171501979E+01	-1.26305549270E+02	-2.77907383960E+01	7.34494279384E+01
4.00050000000E+09	-1.55316598045E+01	-1.23890610268E+02	-2.16007018532E+01	-1.26726742753E+02	-2.15121325616E+01	-1.26559765726E+02	-2.77561052260E+01	7.32785435623E+01
4.00849900000E+09	-1.55345254549E+01	-1.24125000893E+02	-2.15795365232E+01	-1.26927019543E+02	-2.15096432530E+01	-1.26834342092E+02	-2.77173454060E+01	7.30098385276E+01
4.01649800000E+09	-1.55398671384E+01	-1.24360581585E+02	-2.15748103911E+01	-1.27225664616E+02	-2.15042638548E+01	-1.27106775538E+02	-2.76799514536E+01	7.27103484113E+01
4.02449700000E+09	-1.55438676801E+01	-1.24576376757E+02	-2.15534422416E+01	-1.27555525205E+02	-2.15042538115E+01	-1.27437821370E+02	-2.76311832804E+01	7.26037868157E+01
4.03249600000E+09	-1.55484312659E+01	-1.24798881266E+02	-2.15413111865E+01	-1.27911934362E+02	-2.15014286184E+01	-1.27712284691E+02	-2.75765347439E+01	7.23301456397E+01
4.04049500000E+09	-1.55580323988E+01	-1.25050695244E+02	-2.15345461654E+01	-1.28245046618E+02	-2.15005347192E+01	-1.27958147808E+02	-2.75670677144E+01	7.21814246846E+01
4.04849400000E+09	-1.55603798504E+01	-1.25259796525E+02	-2.15344580209E+01	-1.28643255827E+02	-2.15038418928E+01	-1.28232332302E+02	-2.75285964003E+01	7.21260451103E+01
4.05649300000E+09	-1.55654323314E+01	-1.25481518688E+02	-2.15379311450E+01	-1.28991529112E+02	-2.15025018682E+01	-1.28501711994E+02	-2.75057055548E+01	7.18649259728E+01
4.06449200000E+09	-1.55710623846E+01	-1.25727148182E+02	-2.15507956099E+01	-1.29326746578E+02	-2.15005129824E+01	-1.28789225094E+02	-2.74958555439E+01	7.16514078368E+01
4.07249100000E+09	-1.55779570661E+01	-1.25930053287E+02	-2.15682359873E+01	-1.29610680745E+02	-2.15036458422E+01	-1.29045633563E+02	-2.74600511141E+01	7.13668262576E+01
4.08049000000E+09	-1.55855898526E+01	-1.26171132102E+02	-2.15759264446E+01	-1.29835902661E+02	-2.14987972157E+01	-1.29285881563E+02	-2.74478521985E+01	7.12279667486E+01
4.08848900000E+09	-1.55939854912E+01	-1.26397274101E+02	-2.15913904832E+01	-1.30043110602E+02	-2.14949615476E+01	-1.29568545612E+02	-2.74179191399E+01	7.10261581954E+01
4.09648800000E+09	-1.55983503100E+01	-1.26599971771E+02	-2.15943501413E+01	-1.30202714106E+02	-2.14929644960E+01	-1.29777184127E+02	-2.74063006361E+01	7.08024990719E+01
4.10448700000E+09	-1.56071896885E+01	-1.26867597555E+02	-2.15924905860E+01	-1.30385520735E+02	-2.14892537244E+01	-1.30076330088E+02	-2.73934330314E+01	7.03844697312E+01
4.11248600000E+09	-1.56133185888E+01	-1.27082309977E+02	-2.15831278236E+01	-1.30561267884E+02	-2.14909949251E+01	-1.30299903411E+02	-2.73576641607E+01	7.00596492139E+01
4.12048500000E+09	-1.56232776289E+01	-1.27326277582E+02	-2.15772271670E+01	-1.30730515586E+02	-2.14861880670E+01	-1.30583079721E+02	-2.73319559652E+01	6.96968553854E+01
4.12848400000E+09	-1.56313633453E+01	-1.27570802699E+02	-2.15548339717E+01	-1.30988985997E+02	-2.14848647195E+01	-1.30882725179E+02	-2.73145537484E+01	6.94319315991E+01
4.13648300000E+09	-1.56412411148E+01	-1.27817240686E+02	-2.15453561719E+01	-1.31256799022E+02	-2.14784158723E+01	-1.31124914839E+02	-2.72663232340E+01	6.90530578163E+01
4.14448200000E+09	-1.56433301817E+01	-1.28053563734E+02	-2.15291389825E+01	-1.31585101869E+02	-2.14810460231E+01	-1.31397438107E+02	-2.72352852391E+01	6.87043638981E+01
4.15248100000E+09	-1.56476723170E+01	-1.28304274307E+02	-2.15212028279E+01	-1.31954605263E+02	-2.14708426346E+01	-1.31702782342E+02	-2.71957507912E+01	6.84073815645E+01
4.16048000000E+09	-1.56541503583E+01	-1.28547428436E+02	-2.15161866974E+01	-1.32254086459E+02	-2.14725284859E+01	-1.31944492817E+02	-2.71333101750E+01	6.81358704965E+01
4.16847900000E+09	-1.56609974680E+01	-1.28786503664E+02	-2.15218339993E+01	-1.32628141589E+02	-2.14689389287E+01	-1.32229848738E+02	-2.71106690884E+01	6.79936892655E+01
4.17647800000E+09	-1.56667984364E+01	-1.29048518667E+02	-2.15324125080E+01	-1.32980361420E+02	-2.14739651687E+01	-1.32522575617E+02	-2.70709605810E+01	6.76989673943E+01
4.18447700000E+09	-1.56735332653E+01	-1.29260667301E+02	-2.15425897877E+01	-1.33231671588E+02	-2.14706238461E+01	-1.32769757739E+02	-2.70497548227E+01	6.75114170089E+01
4.19247600000E+09	-1.56757032070E+01	-1.29513439817E+02	-2.15430133614E+01	-1.33503910108E+02	-2.14714211646E+01	-1.33010145855E+02	-2.70033274153E+01	6.74202858841E+01
4.20047500000E+09	-1.56802572702E+01	-1.29791090078E+02	-2.15567099916E+01	-1.33757677473E+02	-2.14692735708E+01	-1.33274483337E+02	-2.69786901872E+01	6.73324305948E+01
4.20847400000E+09	-1.56876420320E+01	-1.29982397598E+02	-2.15492031596E+01	-1.33877536635E+02	-2.14617202617E+01	-1.33522392119E+02	-2.69498334664E+01	6.71074342424E+01
4.21647300000E+09	-1.56900442919E+01	-1.30214451358E+02	-2.15524257496E+01	-1.34132321513E+02	-2.14648323239E+01	-1.33839712643E+02	-2.69181533925E+01	6.68823732012E+01
4.22447200000E+09	-1.57008490734E+01	-1.30481085150E+02	-2.15401313209E+01	-1.34305938779E+02	-2.14657170378E+01	-1.34063648476E+02	-2.69128180836E+01	6.65919785851E+01
4.23247100000E+09	-1.57038173542E+01	-1.30709473832E+02	-2.15319357172E+01	-1.34578322799E+02	-2.14569322371E+01	-1.34344303651E+02	-2.69113019142E+01	6.64114804350E+01
4.24047000000E+09	-1.57112999441E+01	-1.30929132945E+02	-2.15142354495E+01	-1.34880564984E+02	-2.14577402362E+01	-1.34622747359E+02	-2.69054432787E+01	6.61602823405E+01
4.24846900000E+09	-1.57205549231E+01	-1.31168509261E+02	-2.15046672380E+01	-1.35153657631E+02	-2.14473973743E+01	-1.34869846056E+02	-2.68663104976E+01	6.58949988591E+01
4.25646800000E+09	-1.57272398819E+01	-1.31406159022E+02	-2.15038778901E+01	-1.35496873754E+02	-2.14556341633E+01	-1.35178354144E+02	-2.68520399678E+01	6.55109149317E+01
4.26446700000E+09	-1.57321642856E+01	-1.31672798960E+02	-2.15068586510E+01	-1.35834543632E+02	-2.14513744101E+01	-1.35461008317E+02	-2.68445388037E+01	6.52404108200E+01
4.27246600000E+09	-1.57385808560E+01	-1.31899523559E+02	-2.15090886166E+01	-1.36171844888E+02	-2.14458036806E+01	-1.35678126442E+02	-2.68274239494E+01	6.50068254424E+01
4.28046500000E+09	-1.57495173484E+01	-1.32152711606E+02	-2.15191458217E+01	-1.36503369825E+02	-2.14443955123E+01	-1.36064461317E+02	-2.67621901596E+01	6.46496363111E+01
4.28846400000E+09	-1.57528226487E+01	-1.32367372566E+02	-2.15264851238E+01	-1.36772451249E+02	-2.14429957233E+01	-1.36243277690E+02	-2.67658861895E+01	6.42763421957E+01
4.29646300000E+09	-1.57594998415E+01	-1.32668398674E+02	-2.15397434263E+01	-1.36985142579E+02	-2.14390055943E+01	-1.36507343364E+02	-2.67125424279E+01	6.39520627872E+01
4.30446200000E+09	-1.57646523369E+01	-1.32887643771E+02	-2.15441582691E+01	-1.37185445338E+02	-2.14366930065E+01	-1.36819342365E+02	-2.66730231773E+01	6.35809594290E+01
4.31246100000E+09	-1.57713531008E+01	-1.33181924736E+02	-2.15399341630E+01	-1.37386957221E+02	-2.14417135063E+01	-1.37020783764E+02	-2.66565097397E+01	6.34427870777E+01
4.32046000000E+09	-1.57781070108E+01	-1.33427185268E+02	-2.15388012954E+01	-1.37559227669E+02	-2.14417029307E+01	-1.37323054423E+02	-2.65984955549E+01	6.31699435486E+01
4.32845900000E+09	-1.57821924888E+01	-1.33665418232E+02	-2.15266192088E+01	-1.37705004241E+02	-2.14388389691E+01	-1.37562095684E+02	-2.65674748172E+01	6.28773179834E+01
4.33645800000E+09	-1.57870887742E+01	-1.33935393429E+02	-2.15087431706E+01	-1.37940296194E+02	-2.14335538779E+01	-1.37813941998E+02	-2.65307844034E+01	6.26323875068E+01
4.34445700000E+09	-1.57871450452E+01	-1.34172085296E+02	-2.14920483868E+01	-1.38214952056E+02	-2.14283293797E+01	-1.38074896846E+02	-2.64986222002E+01	6.26031642323E+01
4.35245600000E+09	-1.57888156701E+01	-1.34441736448E+02	-2.14812538497E+01	-1.38520822771E+02	-2.14315413408E+01	-1.38355864192E+02	-2.64476434342E+01	6.23122643050E+01
4.36045500000E+09	-1.57974347197E+01	-1.34674510089E+02	-2.14690199271E+01	-1.38905081244E+02	-2.14191697540E+01	-1.38595885301E+02	-2.64339091881E+01	6.22133932731E+01
4.36845400000E+09	-1.57947252301E+01	-1.34932316286E+02	-2.14590814890E+01	-1.39257020682E+02	-2.14237124965E+01	-1.38899870875E+02	-2.64044837272E+01	6.19945012408E+01
4.37645300000E+09	-1.58024334087E+01	-1.35167694469E+02	-2.14661842085E+01	-1.39615937538E+02	-2.14168196318E+01	-1.39213073777E+02	-2.63829857431E+01	6.18810333060E+01
4.38445200000E+09	-1.58077183728E+01	-1.35396573620E+02	-2.14724878320E+01	-1.39978539144E+02	-2.14147653194E+01	-1.39484691626E+02	-2.63577250538E+01	6.16500054814E+01
4.39245100000E+09	-1.58056068128E+01	-1.35630213611E+02	-2.14851781995E+01	-1.40321616082E+02	-2.14139941411E+01	-1.39774462635E+02	-2.63477012638E+01	6.14800656609E+01
4.40045000000E+09	-1.58079791369E+01	-1.35865641545E+02	-2.14997497376E+01	-1.40558784737E+02	-2.14131366358E+01	-1.40051394538E+02	-2.63466485233E+01	6.12386411460E+01
4.40844900000E+09	-1.58158160199E+01	-1.36108345593E+02	-2.15116713494E+01	-1.40841677763E+02	-2.14114374290E+01	-1.40298947393E+02	-2.63244617619E+01	6.10588757575E+01
4.41644800000E+09	-1.58177057616E+01	-1.36361265125E+02	-2.15244624301E+01	-1.41055844346E+02	-2.14119051813E+01	-1.40595862896E+02	-2.63078376538E+01	6.07515725699E+01
4.42444700000E+09	-1.58233396919E+01	-1.36574806824E+02	-2.15241738986E+01	-1.41187727146E+02	-2.14145243910E+01	-1.40849713159E+02	-2.62877748467E+01	6.05298414148E+01
4.43244600000E+09	-1.58309361996E+01	-1.36823313254E+02	-2.15284505607E+01	-1.41373309313E+02	-2.14153060513E+01	-1.41110754907E+02	-2.62749444239E+01	6.01472821098E+01
4.44044500000E+09	-1.58359163941E+01	-1.37056062269E+02	-2.15151653402E+01	-1.41525639582E+02	-2.14120266652E+01	-1.41353688884E+02	-2.62586757875E+01	5.98654973686E+01
4.44844400000E+09	-1.58439000314E+01	-1.37286530796E+02	-2.14995702725E+01	-1.41751527273E+02	-2.14047027550E+01	-1.41587011963E+02	-2.62313145748E+01	5.95603977819E+01
4.45644300000E+09	-1.58449169197E+01	-1.37538996784E+02	-2.14897159496E+01	-1.41976639011E+02	-2.14039460200E+01	-1.41868073172E+02	-2.61987081788E+01	5.92130378071E+01
4.46444200000E+09	-1.58513635405E+01	-1.37798254293E+02	-2.14682188881E+01	-1.42285107715E+02	-2.13992446239E+01	-1.42152752957E+02	-2.61773017024E+01	5.88823084890E+01
4.47244100000E+09	-1.58572487342E+01	-1.38055580260E+02	-2.14553282974E+01	-1.42555957792E+02	-2.13933230648E+01	-1.42410826528E+02	-2.61401220502E+01	5.87595204350E+01
4.48044000000E+09	-1.58597558040E+01	-1.38305953459E+02	-2.14515843404E+01	-1.42925665054E+02	-2.13904470086E+01	-1.42685712720E+02	-2.61057624465E+01	5.84277453253E+01
4.48843900000E+09	-1.58645971878E+01	-1.38524964332E+02	-2.14463964872E+01	-1.43278366977E+02	-2.13877757472E+01	-1.42943443315E+02	-2.60790238747E+01	5.82432110900E+01
4.49643800000E+09	-1.58665585340E+01	-1.38782890071E+02	-2.14521018407E+01	-1.43620829533E+02	-2.13878857817E+01	-1.43280214332E+02	-2.60332555449E+01	5.79633788326E+01
4.50443700000E+09	-1.58680723123E+01	-1.39047548938E+02	-2.14597123843E+01	-1.43942935459E+02	-2.13808249980E+01	-1.43523940484E+02	-2.60099820407E+01	5.77823740349E+01
4.51243600000E+09	-1.58696397794E+01	-1.39277932776E+02	-2.14629053742E+01	-1.44239483344E+02	-2.13843451538E+01	-1.43804210437E+02	-2.59818622599E+01	5.75763245153E+01
4.52043500000E+09	-1.58748704411E+01	-1.39496545500E+02	-2.14810553584E+01	-1.44480712414E+02	-2.13868010515E+01	-1.44072976785E+02	-2.59502315474E+01	5.74220321714E+01
4.52843400000E+09	-1.58801528100E+01	-1.39727106511E+02	-2.14901488353E+01	-1.44738270294E+02	-2.13852569660E+01	-1.44338425329E+02	-2.59437218239E+01	5.72257945901E+01
4.53643300000E+09	-1.58831621798E+01	-1.39978892378E+02	-2.14909392698E+01	-1.44982640813E+02	-2.13853886155E+01	-1.44579121134E+02	-2.59010476326E+01	5.70591492604E+01
4.54443200000E+09	-1.58839890825E+01	-1.40168458314E+02	-2.14866993774E+01	-1.45119203167E+02	-2.13828536869E+01	-1.44867602152E+02	-2.58931673193E+01	5.68703427378E+01
4.55243100000E+09	-1.58893342117E+01	-1.40415799451E+02	-2.14744378090E+01	-1.45341998071E+02	-2.13827665244E+01	-1.45109694902E+02	-2.58715873168E+01	5.67428486892E+01
4.56043000000E+09	-1.58929949924E+01	-1.40634459850E+02	-2.14700853135E+01	-1.45548500984E+02	-2.13730312276E+01	-1.45357025691E+02	-2.58684903578E+01	5.64840872311E+01
4.56842900000E+09	-1.58979110155E+01	-1.40890730514E+02	-2.14607484626E+01	-1.45835472928E+02	-2.13712684779E+01	-1.45625815472E+02	-2.58410108316E+01	5.62666873866E+01
4.57642800000E+09	-1.59044439728E+01	-1.41107725934E+02	-2.14467852158E+01	-1.46136930304E+02	-2.13650725145E+01	-1.45860241390E+02	-2.58325873343E+01	5.60519364207E+01
4.58442700000E+09	-1.59087351765E+01	-1.41333153068E+02	-2.14442692581E+01	-1.46414327069E+02	-2.13660830858E+01	-1.46167821465E+02	-2.58279385934E+01	5.58085488017E+01
4.59242600000E+09	-1.59163608003E+01	-1.41559961737E+02	-2.14325989922E+01	-1.46782648654E+02	-2.13620702983E+01	-1.46464454595E+02	-2.58078853006E+01	5.54512874011E+01
4.60042500000E+09	-1.59220495932E+01	-1.41800646846E+02	-2.14379071775E+01	-1.47110425519E+02	-2.13601938691E+01	-1.46729536993E+02	-2.57853975591E+01	5.52063337914E+01
4.60842400000E+09	-1.59291970955E+01	-1.42070476053E+02	-2.14437470340E+01	-1.47395240020E+02	-2.13606707023E+01	-1.47027748087E+02	-2.57720811426E+01	5.48826860103E+01
4.61642300000E+09	-1.59325232324E+01	-1.42282496742E+02	-2.14509276062E+01	-1.47682482665E+02	-2.13640771548E+01	-1.47292897934E+02	-2.57486273630E+01	5.46949859446E+01
4.62442200000E+09	-1.59402041201E+01	-1.42551016877E+02	-2.14549170717E+01	-1.47966724847E+02	-2.13616754424E+01	-1.47591689782E+02	-2.57279638726E+01	5.43454110699E+01
4.63242100000E+09	-1.59493302469E+01	-1.42792737344E+02	-2.14668539899E+01	-1.48186349428E+02	-2.13613260051E+01	-1.47835732457E+02	-2.56960815742E+01	5.40868959598E+01
4.64042000000E+09	-1.59510577037E+01	-1.43048198236E+02	-2.14620366845E+01	-1.48403363413E+02	-2.13630024142E+01	-1.48088291564E+02	-2.56664710824E+01	5.38772644201E+01
4.64841900000E+09	-1.59561536286E+01	-1.43292279351E+02	-2.14642509270E+01	-1.48628341475E+02	-2.13610617914E+01	-1.48355245031E+02	-2.56508018264E+01	5.36054001649E+01
4.65641800000E+09	-1.59593650038E+01	-1.43574866826E+02	-2.14631860492E+01	-1.48859404582E+02	-2.13578204174E+01	-1.48577262674E+02	-2.56054292135E+01	5.34153919214E+01
4.66441700000E+09	-1.59642329634E+01	-1.43815397379E+02	-2.14504112786E+01	-1.49084143605E+02	-2.13547489026E+01	-1.48844313443E+02	-2.55893530505E+01	5.31680490232E+01
4.67241600000E+09	-1.59681328214E+01	-1.44058448362E+02	-2.14428013643E+01	-1.49360854115E+02	-2.13509598232E+01	-1.49094221671E+02	-2.55605647629E+01	5.29391642867E+01
4.68041500000E+09	-1.59670889153E+01	-1.44308427271E+02	-2.14342418890E+01	-1.49608567904E+02	-2.13495373483E+01	-1.49389048555E+02	-2.55441214008E+01	5.27718236201E+01
4.68841400000E+09	-1.59754532945E+01	-1.44569063132E+02	-2.14273397454E+01	-1.49921155071E+02	-2.13449695322E+01	-1.49609201967E+02	-2.55240782882E+01	5.25981015876E+01
4.69641300000E+09	-1.59762265191E+01	-1.44768957120E+02	-2.14221191604E+01	-1.50214293427E+02	-2.13393202640E+01	-1.49920066809E+02	-2.55101231418E+01	5.24077756919E+01
4.70441200000E+09	-1.59733383947E+01	-1.45022370360E+02	-2.14226026734E+01	-1.50518832078E+02	-2.13360431376E+01	-1.50185482019E+02	-2.54869562735E+01	5.21098780604E+01
4.71241100000E+09	-1.59846841640E+01	-1.45276903877E+02	-2.14219165303E+01	-1.50851739929E+02	-2.13331562346E+01	-1.50498525459E+02	-2.54749266740E+01	5.18838872041E+01
4.72041000000E+09	-1.59866570051E+01	-1.45494815014E+02	-2.14249521837E+01	-1.51110643763E+02	-2.13374547844E+01	-1.50777604839E+02	-2.54704391192E+01	5.16964071694E+01
4.72840900000E+09	-1.59905689831E+01	-1.45735702831E+02	-2.14307284404E+01	-1.51402734484E+02	-2.13298578605E+01	-1.51081452779E+02	-2.54587606898E+01	5.14487675381E+01
4.73640800000E+09	-1.59937067844E+01	-1.45990950637E+02	-2.14311423593E+01	-1.51688856914E+02	-2.13301954325E+01	-1.51338468609E+02	-2.54411029697E+01	5.11603434569E+01
4.74440700000E+09	-1.60004900730E+01	-1.46202542281E+02	-2.14350821723E+01	-1.51921587806E+02	-2.13318207565E+01	-1.51585121818E+02	-2.54218041978E+01	5.08886437838E+01
4.75240600000E+09	-1.60051414113E+01	-1.46455920022E+02	-2.14262007101E+01	-1.52138240280E+02	-2.13348842410E+01	-1.51851024602E+02	-2.54023889554E+01	5.05537080102E+01
4.76040500000E+09	-1.60095218574E+01	-1.46732542594E+02	-2.14294805427E+01	-1.52407046379E+02	-2.13303331505E+01	-1.52113136980E+02	-2.53848296437E+01	5.02890904707E+01
4.76840400000E+09	-1.60113758938E+01	-1.46960202908E+02	-2.14223327790E+01	-1.52647137804E+02	-2.13302408569E+01	-1.52384199003E+02	-2.53522381119E+01	4.99620157005E+01
4.77640300000E+09	-1.60170807970E+01	-1.47219472581E+02	-2.14193122434E+01	-1.52952953045E+02	-2.13298390670E+01	-1.52622244178E+02	-2.53401328538E+01	4.96380041792E+01
4.78440200000E+09	-1.60213167474E+01	-1.47491101429E+02	-2.14149834938E+01	-1.53219791075E+02	-2.13212253288E+01	-1.52876104696E+02	-2.53179227203E+01	4.93899261103E+01
4.79240100000E+09	-1.60227530355E+01	-1.47708518268E+02	-2.14118583773E+01	-1.53547571387E+02	-2.13178798099E+01	-1.53152907562E+02	-2.52817637536E+01	4.92162664852E+01
4.80040000000E+09	-1.60312155684E+01	-1.48007556184E+02	-2.14095683794E+01	-1.53821818341E+02	-2.13187958714E+01	-1.53405414937E+02	-2.52474464089E+01	4.88860141440E+01
4.80839900000E+09	-1.60261369688E+01	-1.48232776254E+02	-2.14118991482E+01	-1.54126337312E+02	-2.13101105314E+01	-1.53689877752E+02	-2.52212164668E+01	4.87030168185E+01
4.81639800000E+09	-1.60286755740E+01	-1.48482730686E+02	-2.14177588796E+01	-1.54384852160E+02	-2.13102173253E+01	-1.53993191946E+02	-2.51970660957E+01	4.85055744172E+01
4.82439700000E+09	-1.60286289097E+01	-1.48727077286E+02	-2.14242725901E+01	-1.54635808031E+02	-2.13068197013E+01	-1.54286831360E+02	-2.51700939188E+01	4.82874060647E+01
4.83239600000E+09	-1.60287407187E+01	-1.48968810791E+02	-2.14279471156E+01	-1.54893331737E+02	-2.13112583038E+01	-1.54570647563E+02	-2.51363280365E+01	4.81609841099E+01
4.84039500000E+09	-1.60320227065E+01	-1.49207546370E+02	-2.14286894792E+01	-1.55118685572E+02	-2.13082489946E+01	-1.54831359218E+02	-2.51156415178E+01	4.80031824154E+01
4.84839400000E+09	-1.60332938464E+01	-1.49422529589E+02	-2.14293682189E+01	-1.55322501520E+02	-2.13117947930E+01	-1.55088610890E+02	-2.51055626627E+01	4.78704639715E+01
4.85639300000E+09	-1.60315746696E+01	-1.49641511005E+02	-2.14223792168E+01	-1.55522126980E+02	-2.13114776535E+01	-1.55337490911E+02	-2.50944099410E+01	4.76703534411E+01
4.86439200000E+09	-1.60320437218E+01	-1.49865878575E+02	-2.14153534661E+01	-1.55746937727E+02	-2.13104771529E+01	-1.55607884683E+02	-2.50820872487E+01	4.74768870241E+01
4.87239100000E+09	-1.60364462578E+01	-1.50054901283E+02	-2.14004791198E+01	-1.55997906146E+02	-2.13082395668E+01	-1.55883355821E+02	-2.50759537412E+01	4.72612809192E+01
4.88039000000E+09	-1.60382522697E+01	-1.50271376033E+02	-2.13947348751E+01	-1.56263190500E+02	-2.13086782085E+01	-1.56098565655E+02	-2.50658942215E+01	4.70937335727E+01
4.88838900000E+09	-1.60470503420E+01	-1.50492015259E+02	-2.13809313489E+01	-1.56540688777E+02	-2.13001930120E+01	-1.56376365334E+02	-2.50628685025E+01	4.68200629102E+01
4.89638800000E+09	-1.60512600696E+01	-1.50717042090E+02	-2.13739878552E+01	-1.56920613109E+02	-2.12938172378E+01	-1.56634329365E+02	-2.50492853857E+01	4.65898230122E+01
4.90438700000E+09	-1.60579317261E+01	-1.50952833045E+02	-2.13691429666E+01	-1.57235114627E+02	-2.12901718733E+01	-1.56915696481E+02	-2.50437899131E+01	4.63305392647E+01
4.91238600000E+09	-1.60694485623E+01	-1.51166169665E+02	-2.13669252743E+01	-1.57583041971E+02	-2.12848789384E+01	-1.57205055873E+02	-2.50275695877E+01	4.59939076005E+01
4.92038500000E+09	-1.60735648986E+01	-1.51423787480E+02	-2.13722017751E+01	-1.57906977426E+02	-2.12804256245E+01	-1.57511197123E+02	-2.50090704895E+01	4.57376795911E+01
4.92838400000E+09	-1.60815182479E+01	-1.51629334797E+02	-2.13784977446E+01	-1.58240353240E+02	-2.12814016845E+01	-1.57814800260E+02	-2.49992501523E+01	4.55008843091E+01
4.93638300000E+09	-1.60900201741E+01	-1.51867926229E+02	-2.13939058277E+01	-1.58510193364E+02	-2.12856682506E+01	-1.58113644741E+02	-2.49836646241E+01	4.51393823854E+01
4.94438200000E+09	-1.60929525892E+01	-1.52148777448E+02	-2.13976667289E+01	-1.58779567537E+02	-2.12840503164E+01	-1.58357212067E+02	-2.49785589744E+01	4.48160147702E+01
4.95238100000E+09	-1.61081194573E+01	-1.52426611832E+02	-2.14085698534E+01	-1.59016796931E+02	-2.12885008682E+01	-1.58622470855E+02	-2.49479988627E+01	4.45603657680E+01
4.96038000000E+09	-1.61078384718E+01	-1.52681167463E+02	-2.14133337298E+01	-1.59206985487E+02	-2.12877219937E+01	-1.58902496776E+02	-2.49200178568E+01	4.43354331042E+01
4.96837900000E+09	-1.61169446002E+01	-1.52925455908E+02	-2.14128330286E+01	-1.59416924144E+02	-2.12887985081E+01	-1.59149726045E+02	-2.48970373808E+01	4.39670705442E+01
4.97637800000E+09	-1.61150872941E+01	-1.53211375736E+02	-2.14067361418E+01	-1.59638243834E+02	-2.12912789163E+01	-1.59392905246E+02	-2.48721229235E+01	4.37568847846E+01
4.98437700000E+09	-1.61171225877E+01	-1.53497527890E+02	-2.14061431219E+01	-1.59830745732E+02	-2.12862791869E+01	-1.59645712729E+02	-2.48431155323E+01	4.35558584646E+01
4.99237600000E+09	-1.61196926663E+01	-1.53741282658E+02	-2.13925058419E+01	-1.60050172183E+02	-2.12792811525E+01	-1.59910725220E+02	-2.48141353329E+01	4.33080292683E+01
5.00037500000E+09	-1.61202662050E+01	-1.53992001327E+02	-2.13842236307E+01	-1.60344232659E+02	-2.12767018006E+01	-1.60138490658E+02	-2.47874776817E+01	4.30933285703E+01
5.00837400000E+09	-1.61219160295E+01	-1.54253048419E+02	-2.13766451906E+01	-1.60604457982E+02	-2.12722749360E+01	-1.60424662591E+02	-2.47820146439E+01	4.29120706608E+01
5.01637300000E+09	-1.61236404272E+01	-1.54488610628E+02	-2.13660634698E+01	-1.60920478716E+02	-2.12630868873E+01	-1.60701433085E+02	-2.47513826223E+01	4.27519692046E+01
5.02437200000E+09	-1.61264929978E+01	-1.54721737052E+02	-2.13602025810E+01	-1.61215479020E+02	-2.12639814308E+01	-1.60969603886E+02	-2.47348028040E+01	4.25644260749E+01
5.03237100000E+09	-1.61266566705E+01	-1.54973050443E+02	-2.13601550355E+01	-1.61509624323E+02	-2.12583909648E+01	-1.61295163514E+02	-2.47256567650E+01	4.23776635306E+01
5.04037000000E+09	-1.61294943740E+01	-1.55188798891E+02	-2.13556398115E+01	-1.61820312976E+02	-2.12597476520E+01	-1.61601525052E+02	-2.47066286586E+01	4.22325723390E+01
5.04836900000E+09	-1.61283622705E+01	-1.55426641919E+02	-2.13551459268E+01	-1.62111012003E+02	-2.12585341315E+01	-1.61858679209E+02	-2.46894929496E+01	4.19913798497E+01
5.05636800000E+09	-1.61366242827E+01	-1.55641769987E+02	-2.13605150332E+01	-1.62403341179E+02	-2.12606484292E+01	-1.62132504453E+02	-2.46759422006E+01	4.17806886500E+01
5.06436700000E+09	-1.61411534468E+01	-1.55876650652E+02	-2.13602371266E+01	-1.62658866349E+02	-2.12642151818E+01	-1.62417712930E+02	-2.46627565696E+01	4.15554959507E+01
5.07236600000E+09	-1.61487242947E+01	-1.56143706219E+02	-2.13582216108E+01	-1.62924029739E+02	-2.12629642737E+01	-1.62655228141E+02	-2.46618560201E+01	4.14420362936E+01
5.08036500000E+09	-1.61518773351E+01	-1.56364355810E+02	-2.13597123153E+01	-1.63210391866E+02	-2.12644238192E+01	-1.62913749932E+02	-2.46451541182E+01	4.11828596033E+01
5.08836400000E+09	-1.61577962928E+01	-1.56620465741E+02	-2.13576855869E+01	-1.63491636635E+02	-2.12637731668E+01	-1.63151358500E+02	-2.46366826266E+01	4.09458218593E+01
5.09636300000E+09	-1.61676087740E+01	-1.56894955444E+02	-2.13593389295E+01	-1.63771769280E+02	-2.12619558712E+01	-1.63402227285E+02	-2.46309968697E+01	4.07092750324E+01
5.10436200000E+09	-1.61744356513E+01	-1.57153900400E+02	-2.13597808677E+01	-1.64050914776E+02	-2.12524373014E+01	-1.63675140760E+02	-2.46195083665E+01	4.04943348486E+01
5.11236100000E+09	-1.61725688546E+01	-1.57421164665E+02	-2.13551329572E+01	-1.64336033377E+02	-2.12455638305E+01	-1.63968005300E+02	-2.46143111960E+01	4.03194105458E+01
5.12036000000E+09	-1.61759010429E+01	-1.57674676656E+02	-2.13593683821E+01	-1.64581401107E+02	-2.12388380094E+01	-1.64255348638E+02	-2.46049766246E+01	3.99903803715E+01
5.12835900000E+09	-1.61786126085E+01	-1.57976561468E+02	-2.13637363232E+01	-1.64891610727E+02	-2.12407739421E+01	-1.64554942558E+02	-2.46006340118E+01	3.97528056474E+01
5.13635800000E+09	-1.61753486119E+01	-1.58238063783E+02	-2.13703116255E+01	-1.65134019065E+02	-2.12350504727E+01	-1.64784033076E+02	-2.46019968396E+01	3.94815107748E+01
5.14435700000E+09	-1.61785619440E+01	-1.58523923125E+02	-2.13717153937E+01	-1.65377304770E+02	-2.12396334576E+01	-1.65141959839E+02	-2.45848829797E+01	3.92071841921E+01
5.15235600000E+09	-1.61796038641E+01	-1.58750004100E+02	-2.13730088870E+01	-1.65605272821E+02	-2.12390013663E+01	-1.65409449917E+02	-2.45780176688E+01	3.89217335458E+01
5.16035500000E+09	-1.61743436683E+01	-1.59027597820E+02	-2.13714446636E+01	-1.65813907382E+02	-2.12387104158E+01	-1.65692305195E+02	-2.45572625553E+01	3.85993246660E+01
5.16835400000E+09	-1.61700516898E+01	-1.59286365506E+02	-2.13712083474E+01	-1.66037418500E+02	-2.12433076710E+01	-1.65958625074E+02	-2.45480610750E+01	3.83146709334E+01
5.17635300000E+09	-1.61747244200E+01	-1.59508267924E+02	-2.13619485093E+01	-1.66287110201E+02	-2.12430075892E+01	-1.66193052420E+02	-2.45364131569E+01	3.80105742378E+01
5.18435200000E+09	-1.61652784940E+01	-1.59738997028E+02	-2.13525061609E+01	-1.66536517166E+02	-2.12423144000E+01	-1.66464590764E+02	-2.45215667160E+01	3.76582907289E+01
5.19235100000E+09	-1.61631783851E+01	-1.59959482043E+02	-2.13306810630E+01	-1.66748443764E+02	-2.12460123591E+01	-1.66695413802E+02	-2.44922501121E+01	3.73246067124E+01
5.20035000000E+09	-1.61716332595E+01	-1.60153883598E+02	-2.13310812602E+01	-1.67057970128E+02	-2.12393092443E+01	-1.66947399791E+02	-2.44626971061E+01	3.70493671130E+01
5.20834900000E+09	-1.61663698834E+01	-1.60359998254E+02	-2.13184671495E+01	-1.67393753424E+02	-2.12350070000E+01	-1.67222937515E+02	-2.44392914962E+01	3.67208192059E+01
5.21634800000E+09	-1.61734320174E+01	-1.60555387164E+02	-2.13157257350E+01	-1.67716167231E+02	-2.12281647658E+01	-1.67479526278E+02	-2.44101368031E+01	3.64681925260E+01
5.22434700000E+09	-1.61771604515E+01	-1.60772058875E+02	-2.13116991961E+01	-1.68059920119E+02	-2.12239004183E+01	-1.67739634389E+02	-2.43777697545E+01	3.62352850601E+01
5.23234600000E+09	-1.61850864129E+01	-1.60994210047E+02	-2.13148244073E+01	-1.68379060859E+02	-2.12156336520E+01	-1.68032284198E+02	-2.43425104319E+01	3.59714759578E+01
5.24034500000E+09	-1.61869509544E+01	-1.61227783279E+02	-2.13189224784E+01	-1.68716825008E+02	-2.12087691235E+01	-1.68312943378E+02	-2.43053855052E+01	3.57781570954E+01
5.24834400000E+09	-1.61976597376E+01	-1.61443987413E+02	-2.13290570053E+01	-1.69020736583E+02	-2.12100343061E+01	-1.68614872541E+02	-2.42823502047E+01	3.56491771387E+01
5.25634300000E+09	-1.62051685015E+01	-1.61687561816E+02	-2.13307051671E+01	-1.69296226828E+02	-2.12109285429E+01	-1.68919538780E+02	-2.42539559730E+01	3.55541451574E+01
5.26434200000E+09	-1.62153330030E+01	-1.61938956829E+02	-2.13406352710E+01	-1.69542841571E+02	-2.12151946574E+01	-1.69198952296E+02	-2.42319414896E+01	3.54433368298E+01
5.27234100000E+09	-1.62233946405E+01	-1.62187487608E+02	-2.13506102175E+01	-1.69789975057E+02	-2.12153734688E+01	-1.69494016411E+02	-2.42056600929E+01	3.53370619531E+01
5.28034000000E+09	-1.62263507659E+01	-1.62475183208E+02	-2.13477683876E+01	-1.70011100253E+02	-2.12159813382E+01	-1.69774788335E+02	-2.42007070352E+01	3.53041909609E+01
5.28833900000E+09	-1.62339966499E+01	-1.62735505680E+02	-2.13471834431E+01	-1.70222927564E+02	-2.12195913131E+01	-1.69988650032E+02	-2.41851460880E+01	3.52259839641E+01
5.29633800000E+09	-1.62429119790E+01	-1.62998027359E+02	-2.13445519953E+01	-1.70452321736E+02	-2.12192737369E+01	-1.70263765957E+02	-2.41919289940E+01	3.51755727199E+01
5.30433700000E+09	-1.62426003112E+01	-1.63303675926E+02	-2.13404874915E+01	-1.70690249424E+02	-2.12137426219E+01	-1.70492562126E+02	-2.41903561894E+01	3.50822902273E+01
5.31233600000E+09	-1.62481513767E+01	-1.63547463035E+02	-2.13344034036E+01	-1.70937516974E+02	-2.12149654923E+01	-1.70746714763E+02	-2.41992463480E+01	3.49325807015E+01
5.32033500000E+09	-1.62535927933E+01	-1.63855957943E+02	-2.13316744431E+01	-1.71222052908E+02	-2.12075237155E+01	-1.71038221275E+02	-2.42125103410E+01	3.48030235857E+01
5.32833400000E+09	-1.62499470543E+01	-1.64130290383E+02	-2.13243413463E+01	-1.71510545652E+02	-2.12039326305E+01	-1.71267053616E+02	-2.42286286611E+01	3.45983174656E+01
5.33633300000E+09	-1.62486897132E+01	-1.64372106206E+02	-2.13246843025E+01	-1.71782256713E+02	-2.12002851329E+01	-1.71571471450E+02	-2.42356226839E+01	3.43408276627E+01
5.34433200000E+09	-1.62486403451E+01	-1.64671687028E+02	-2.13226946819E+01	-1.72051685904E+02	-2.11920106244E+01	-1.71878898354E+02	-2.42575460687E+01	3.40726359169E+01
5.35233100000E+09	-1.62501731978E+01	-1.64917715883E+02	-2.13241436083E+01	-1.72346200753E+02	-2.11923200314E+01	-1.72161012629E+02	-2.42633548483E+01	3.37355210886E+01
5.36033000000E+09	-1.62499256911E+01	-1.65181579663E+02	-2.13248676248E+01	-1.72589781694E+02	-2.11931793686E+01	-1.72468439388E+02	-2.42656448212E+01	3.34388199577E+01
5.36832900000E+09	-1.62470506174E+01	-1.65434797883E+02	-2.13247837650E+01	-1.72834651091E+02	-2.11950937161E+01	-1.72762485305E+02	-2.42688602335E+01	3.30329953560E+01
5.37632800000E+09	-1.62498592091E+01	-1.65686265655E+02	-2.13236110839E+01	-1.73092236846E+02	-2.12045137019E+01	-1.73031655128E+02	-2.42572271287E+01	3.26490889522E+01
5.38432700000E+09	-1.62494342317E+01	-1.65921251891E+02	-2.13179638010E+01	-1.73389710804E+02	-2.12008908673E+01	-1.73277398430E+02	-2.42472892968E+01	3.22921172361E+01
5.39232600000E+09	-1.62520300018E+01	-1.66194006375E+02	-2.13145195796E+01	-1.73614151673E+02	-2.12054138660E+01	-1.73525148294E+02	-2.42367785990E+01	3.19628524536E+01
5.40032500000E+09	-1.62500224050E+01	-1.66433771051E+02	-2.13087878217E+01	-1.73868225821E+02	-2.12004083542E+01	-1.73772286875E+02	-2.42093466985E+01	3.16259643344E+01
5.40832400000E+09	-1.62528606294E+01	-1.66679714244E+02	-2.13016442098E+01	-1.74171663934E+02	-2.11924283419E+01	-1.73995428019E+02	-2.41883874434E+01	3.13041671349E+01
5.41632300000E+09	-1.62564257753E+01	-1.66956115491E+02	-2.13029181690E+01	-1.74497470779E+02	-2.11912146734E+01	-1.74280161216E+02	-2.41582708295E+01	3.10419687848E+01
5.42432200000E+09	-1.62564646596E+01	-1.67215485559E+02	-2.12976763542E+01	-1.74794030166E+02	-2.11853890329E+01	-1.74551560696E+02	-2.41263108419E+01	3.07367095209E+01
5.43232100000E+09	-1.62566474757E+01	-1.67439207922E+02	-2.13033856591E+01	-1.75102956102E+02	-2.11761457278E+01	-1.74790663152E+02	-2.41070153491E+01	3.05575413085E+01
5.44032000000E+09	-1.62508947446E+01	-1.67736192309E+02	-2.13025716478E+01	-1.75422408653E+02	-2.11708431930E+01	-1.75108948468E+02	-2.40804717199E+01	3.04004355601E+01
5.44831900000E+09	-1.62517858577E+01	-1.67973521349E+02	-2.13139810037E+01	-1.75684943632E+02	-2.11665923247E+01	-1.75408389605E+02	-2.40572698672E+01	3.02765919354E+01
5.45631800000E+09	-1.62491692574E+01	-1.68259351825E+02	-2.13201093969E+01	-1.75951034002E+02	-2.11607997141E+01	-1.75752347214E+02	-2.40382393819E+01	3.01105412607E+01
5.46431700000E+09	-1.62456125150E+01	-1.68508977501E+02	-2.13241304005E+01	-1.76187499363E+02	-2.11667796567E+01	-1.76040902101E+02	-2.40354071350E+01	2.99744263788E+01
5.47231600000E+09	-1.62427281905E+01	-1.68717738169E+02	-2.13292195862E+01	-1.76389930224E+02	-2.11709572388E+01	-1.76354050201E+02	-2.40236757500E+01	2.98489310532E+01
5.48031500000E+09	-1.62404290637E+01	-1.68993067912E+02	-2.13290781825E+01	-1.76618989485E+02	-2.11791159456E+01	-1.76645621160E+02	-2.40254469317E+01	2.97287119357E+01
5.48831400000E+09	-1.62337759491E+01	-1.69229745111E+02	-2.13252895792E+01	-1.76808225074E+02	-2.11842530891E+01	-1.76893349339E+02	-2.40315573997E+01	2.96684804641E+01
5.49631300000E+09	-1.62296549645E+01	-1.69429954903E+02	-2.13171351348E+01	-1.77016349020E+02	-2.11917740828E+01	-1.77134253314E+02	-2.40415729316E+01	2.94028568741E+01
5.50431200000E+09	-1.62312111219E+01	-1.69656185524E+02	-2.13082666936E+01	-1.77245942898E+02	-2.11923763351E+01	-1.77365273343E+02	-2.40516754189E+01	2.91955748620E+01
5.51231100000E+09	-1.62254815326E+01	-1.69893547476E+02	-2.12942085739E+01	-1.77497989060E+02	-2.11931023583E+01	-1.77576975166E+02	-2.40580071991E+01	2.89340533106E+01
5.52031000000E+09	-1.62257430797E+01	-1.70066382305E+02	-2.12809086822E+01	-1.77782958350E+02	-2.11956322889E+01	-1.77768722408E+02	-2.40679767384E+01	2.86838092267E+01
5.52830900000E+09	-1.62237547027E+01	-1.70279278614E+02	-2.12739618702E+01	-1.78122962617E+02	-2.11863808124E+01	-1.78001335006E+02	-2.40750454120E+01	2.83720504126E+01
5.53630800000E+09	-1.62252491987E+01	-1.70486263394E+02	-2.12610512795E+01	-1.78453374566E+02	-2.11709705189E+01	-1.78264568572E+02	-2.40853716935E+01	2.80646725139E+01
5.54430700000E+09	-1.62292461458E+01	-1.70710670640E+02	-2.12628973477E+01	-1.78781017090E+02	-2.11616901225E+01	-1.78524769764E+02	-2.40922390918E+01	2.76867951742E+01
5.55230600000E+09	-1.62305839729E+01	-1.70903609811E+02	-2.12685919574E+01	-1.79120826120E+02	-2.11535996574E+01	-1.78827470332E+02	-2.40799281139E+01	2.73294534601E+01
5.56030500000E+09	-1.62355420840E+01	-1.71111968700E+02	-2.12730773252E+01	-1.79423547467E+02	-2.11491274513E+01	-1.79125613113E+02	-2.40703831044E+01	2.69693550113E+01
5.56830400000E+09	-1.62386626634E+01	-1.71348796859E+02	-2.12815522904E+01	-1.79741094465E+02	-2.11391394014E+01	-1.79481738026E+02	-2.40685561845E+01	2.65671611824E+01
5.57630300000E+09	-1.62438039480E+01	-1.71548069685E+02	-2.12907830719E+01	-1.79996599018E+02	-2.11379809798E+01	-1.79801095089E+02	-2.40387481483E+01	2.62920201501E+01
5.58430200000E+09	-1.62513489133E+01	-1.71834762728E+02	-2.12948913938E+01	1.79774477770E+02	-2.11410945249E+01	1.79854792597E+02	-2.40191612121E+01	2.59377473167E+01
5.59230100000E+09	-1.62528524822E+01	-1.72066827654E+02	-2.12994306656E+01	1.79530535259E+02	-2.11451968400E+01	1.79559890474E+02	-2.40065387228E+01	2.56633291543E+01
5.60030000000E+09	-1.62555699028E+01	-1.72309934937E+02	-2.12988187228E+01	1.79328039711E+02	-2.11545247672E+01	1.79281891516E+02	-2.39807610522E+01	2.54071287422E+01
5.60829900000E+09	-1.62655307485E+01	-1.72552391215E+02	-2.12921132296E+01	1.79098705209E+02	-2.11612570131E+01	1.79018887410E+02	-2.39593433911E+01	2.51094054734E+01
5.61629800000E+09	-1.62665711443E+01	-1.72819159758E+02	-2.12844623201E+01	1.78842462243E+02	-2.11590124999E+01	1.78781870918E+02	-2.39380228084E+01	2.49465171226E+01
5.62429700000E+09	-1.62688081864E+01	-1.73051364338E+02	-2.12804113893E+01	1.78580879666E+02	-2.11628392939E+01	1.78531999466E+02	-2.39205273197E+01	2.46814079334E+01
5.63229600000E+09	-1.62681240747E+01	-1.73328418808E+02	-2.12691941783E+01	1.78291294677E+02	-2.11632810921E+01	1.78324509007E+02	-2.39079570023E+01	2.45141881152E+01
5.64029500000E+09	-1.62690210531E+01	-1.73570643496E+02	-2.12638224389E+01	1.77986978942E+02	-2.11608742334E+01	1.78086018758E+02	-2.38899280260E+01	2.43265616823E+01
5.64829400000E+09	-1.62660034313E+01	-1.73788566706E+02	-2.12628002878E+01	1.77682804326E+02	-2.11558086616E+01	1.77823643715E+02	-2.38851557271E+01	2.40777892357E+01
5.65629300000E+09	-1.62670800586E+01	-1.74003620690E+02	-2.12650962055E+01	1.77368768229E+02	-2.11421250123E+01	1.77568465888E+02	-2.38791094114E+01	2.39227199816E+01
5.66429200000E+09	-1.62679804681E+01	-1.74248446131E+02	-2.12744303084E+01	1.77065175071E+02	-2.11404968711E+01	1.77280205759E+02	-2.38726623692E+01	2.37061533700E+01
5.67229100000E+09	-1.62709024749E+01	-1.74461941537E+02	-2.12799665677E+01	1.76768929508E+02	-2.11374118807E+01	1.76991643170E+02	-2.38753286924E+01	2.35050061911E+01
5.68029000000E+09	-1.62737658115E+01	-1.74681562485E+02	-2.12849559249E+01	1.76523495141E+02	-2.11344760933E+01	1.76724090576E+02	-2.38729472167E+01	2.32536945376E+01
5.68828900000E+09	-1.62777999344E+01	-1.74896419235E+02	-2.12931380184E+01	1.76318913416E+02	-2.11353537769E+01	1.76401731128E+02	-2.38742173540E+01	2.29534072383E+01
5.69628800000E+09	-1.62816228922E+01	-1.75120920204E+02	-2.12930623204E+01	1.76129726045E+02	-2.11401720592E+01	1.76121394298E+02	-2.38671115660E+01	2.27132440407E+01
5.70428700000E+09	-1.62899675537E+01	-1.75371462619E+02	-2.12912782072E+01	1.75924953302E+02	-2.11412883149E+01	1.75883438688E+02	-2.38655197006E+01	2.24359326661E+01
5.71228600000E+09	-1.62988711772E+01	-1.75608616010E+02	-2.12832223954E+01	1.75726763549E+02	-2.11354591188E+01	1.75635502810E+02	-2.38613856069E+01	2.21568543530E+01
5.72028500000E+09	-1.63051080291E+01	-1.75876997312E+02	-2.12703130110E+01	1.75510844226E+02	-2.11477728062E+01	1.75390664013E+02	-2.38469651127E+01	2.18978606312E+01
5.72828400000E+09	-1.63096328507E+01	-1.76128783604E+02	-2.12601868657E+01	1.75248646070E+02	-2.11394776261E+01	1.75150920758E+02	-2.38433713846E+01	2.16347221159E+01
5.73628300000E+09	-1.63166975308E+01	-1.76384957448E+02	-2.12422038047E+01	1.74936259577E+02	-2.11257033210E+01	1.74914471087E+02	-2.38388521479E+01	2.13414486074E+01
5.74428200000E+09	-1.63245179881E+01	-1.76677883957E+02	-2.12305668120E+01	1.74576586555E+02	-2.11180525673E+01	1.74608404604E+02	-2.38174637801E+01	2.11238123389E+01
5.75228100000E+09	-1.63229509265E+01	-1.76950931668E+02	-2.12197639979E+01	1.74254192708E+02	-2.11178988437E+01	1.74346635580E+02	-2.38165567664E+01	2.08752993815E+01
5.76028000000E+09	-1.63274647900E+01	-1.77264464021E+02	-2.12212896686E+01	1.73847333785E+02	-2.11121883651E+01	1.74038952028E+02	-2.37975168566E+01	2.06246674336E+01
5.76827900000E+09	-1.63369263891E+01	-1.77529134251E+02	-2.12319622510E+01	1.73507734575E+02	-2.10921732753E+01	1.73702834568E+02	-2.37842761935E+01	2.04156755228E+01
5.77627800000E+09	-1.63273583862E+01	-1.77827404563E+02	-2.12405801029E+01	1.73155453746E+02	-2.10913107760E+01	1.73367696072E+02	-2.37829478698E+01	2.01552053663E+01
5.78427700000E+09	-1.63267707464E+01	-1.78120276682E+02	-2.12489983091E+01	1.72815386089E+02	-2.11079828093E+01	1.72983323676E+02	-2.37765631004E+01	1.99629289419E+01
5.79227600000E+09	-1.63250058818E+01	-1.78405984426E+02	-2.12680408152E+01	1.72575883715E+02	-2.11163950632E+01	1.72690322598E+02	-2.37631362360E+01	1.97063518436E+01
5.80027500000E+09	-1.63249380062E+01	-1.78659917069E+02	-2.12875940753E+01	1.72380313254E+02	-2.11172589514E+01	1.72396875558E+02	-2.37623215344E+01	1.95108325065E+01
5.80827400000E+09	-1.63170476078E+01	-1.78925615205E+02	-2.12970470442E+01	1.72196891327E+02	-2.11341731610E+01	1.72096532905E+02	-2.37590797417E+01	1.92652140932E+01
5.81627300000E+09	-1.63128707051E+01	-1.79179059789E+02	-2.12953044022E+01	1.72051897032E+02	-2.11436552682E+01	1.71915447604E+02	-2.37549327441E+01	1.89844711472E+01
5.82427200000E+09	-1.63041149504E+01	-1.79426067073E+02	-2.12920143994E+01	1.71886511462E+02	-2.11505774288E+01	1.71689124036E+02	-2.37538942920E+01	1.87231918138E+01
5.83227100000E+09	-1.63055988680E+01	-1.79655614910E+02	-2.12886186008E+01	1.71688684866E+02	-2.11577965558E+01	1.71499007212E+02	-2.37477724199E+01	1.84939953980E+01
5.84027000000E+09	-1.63026801252E+01	-1.79879956658E+02	-2.12682005229E+01	1.71484879644E+02	-2.11584921299E+01	1.71334269547E+02	-2.37464917804E+01	1.82385123318E+01
5.84826900000E+09	-1.63022733557E+01	1.79886772222E+02	-2.12530481293E+01	1.71256536707E+02	-2.11381189941E+01	1.71177840076E+02	-2.37324888798E+01	1.79485888360E+01
5.85626800000E+09	-1.63088047609E+01	1.79661489068E+02	-2.12396372816E+01	1.70970711477E+02	-2.11255044578E+01	1.70953013248E+02	-2.37229350420E+01	1.77193160488E+01
5.86426700000E+09	-1.63101356902E+01	1.79430729385E+02	-2.12235135883E+01	1.70629952820E+02	-2.11098921347E+01	1.70725847243E+02	-2.37224766054E+01	1.74573450837E+01
5.87226600000E+09	-1.63002867057E+01	1.79219949329E+02	-2.12052307759E+01	1.70272110309E+02	-2.10903186077E+01	1.70407711443E+02	-2.37052443349E+01	1.72222486369E+01
5.88026500000E+09	-1.63152779498E+01	1.78983680332E+02	-2.12131845567E+01	1.69920030608E+02	-2.10749459480E+01	1.70068507869E+02	-2.36989470629E+01	1.69801924752E+01
5.88826400000E+09	-1.63171546434E+01	1.78708640752E+02	-2.12127576399E+01	1.69569151377E+02	-2.10635682489E+01	1.69715807500E+02	-2.36825259691E+01	1.67177786821E+01
5.89626300000E+09	-1.63192514012E+01	1.78449593583E+02	-2.12189250633E+01	1.69261285803E+02	-2.10574451028E+01	1.69319171879E+02	-2.36762319908E+01	1.65029114934E+01
5.90426200000E+09	-1.63165512716E+01	1.78197837682E+02	-2.12223114843E+01	1.68921631535E+02	-2.10686391629E+01	1.68985016012E+02	-2.36688713535E+01	1.63468824295E+01
5.91226100000E+09	-1.63265408867E+01	1.77931870712E+02	-2.12405921434E+01	1.68693354369E+02	-2.10778461430E+01	1.68561786440E+02	-2.36659213731E+01	1.61410760427E+01
5.92026000000E+09	-1.63340167639E+01	1.77645920372E+02	-2.12470817358E+01	1.68429541804E+02	-2.10903265953E+01	1.68295406859E+02	-2.36665900207E+01	1.60311644258E+01
5.92825900000E+09	-1.63366922076E+01	1.77340645009E+02	-2.12566919752E+01	1.68218714957E+02	-2.11075823803E+01	1.68008022715E+02	-2.36589879930E+01	1.57754896809E+01
5.93625800000E+09	-1.63160892100E+01	1.77065917572E+02	-2.12414488282E+01	1.68019355265E+02	-2.11136920900E+01	1.67743408089E+02	-2.36589425677E+01	1.55084160716E+01
5.94425700000E+09	-1.63150844448E+01	1.76791394794E+02	-2.12382541530E+01	1.67780874676E+02	-2.11229768985E+01	1.67542950511E+02	-2.36592850611E+01	1.53848501194E+01
5.95225600000E+09	-1.63093171279E+01	1.76524040192E+02	-2.12330610174E+01	1.67522062086E+02	-2.11351378321E+01	1.67351854165E+02	-2.36707806514E+01	1.51454624387E+01
5.96025500000E+09	-1.63186693460E+01	1.76263690837E+02	-2.12373915656E+01	1.67253312836E+02	-2.11301379985E+01	1.67199079076E+02	-2.36803607279E+01	1.49206669574E+01
5.96825400000E+09	-1.63115488969E+01	1.75978046090E+02	-2.12322105319E+01	1.66963723559E+02	-2.11241172880E+01	1.67025610093E+02	-2.36880293040E+01	1.46353296859E+01
5.97625300000E+09	-1.62983192871E+01	1.75734132121E+02	-2.12248351453E+01	1.66684301164E+02	-2.11145976544E+01	1.66787748528E+02	-2.37002807806E+01	1.44133176448E+01
5.98425200000E+09	-1.62990131798E+01	1.75485086439E+02	-2.12316417687E+01	1.66360114675E+02	-2.10962075843E+01	1.66522862031E+02	-2.37100700829E+01	1.40743406367E+01
5.99225100000E+09	-1.62882345675E+01	1.75270905057E+02	-2.12304783677E+01	1.66065889811E+02	-2.10864769171E+01	1.66256126701E+02	-2.37037874656E+01	1.38050394734E+01
6.00025000000E+09	-1.62732844103E+01	1.75071705791E+02	-2.12332078167E+01	1.65804974063E+02	-2.10753691963E+01	1.65942340529E+02	-2.37108590488E+01	1.33792987164E+01
6.00824900000E+09	-1.62722523255E+01	1.74832153547E+02	-2.12338369914E+01	1.65557061330E+02	-2.10665557602E+01	1.65636546431E+02	-2.37074278736E+01	1.30300267792E+01
6.01624800000E+09	-1.62716788479E+01	1.74636103868E+02	-2.12411624429E+01	1.65340389750E+02	-2.10658977051E+01	1.65284189242E+02	-2.36974367661E+01	1.27803412015E+01
6.02424700000E+09	-1.62696775756E+01	1.74420841538E+02	-2.12424321617E+01	1.65107173847E+02	-2.10662094161E+01	1.64959175130E+02	-2.36883159985E+01	1.24676253027E+01
6.03224600000E+09	-1.62689825089E+01	1.74214671745E+02	-2.12364390007E+01	1.64905346399E+02	-2.10710626790E+01	1.64644739703E+02	-2.36885641076E+01	1.21384456308E+01
6.04024500000E+09	-1.62695924546E+01	1.74000770960E+02	-2.12293051693E+01	1.64700189954E+02	-2.10769151032E+01	1.64354702338E+02	-2.36695634075E+01	1.18115567207E+01
6.04824400000E+09	-1.62764327015E+01	1.73781658571E+02	-2.12163320183E+01	1.64464085064E+02	-2.10834272446E+01	1.64112141592E+02	-2.36580178558E+01	1.15023829786E+01
6.05624300000E+09	-1.62778342539E+01	1.73563262400E+02	-2.12023288073E+01	1.64200469407E+02	-2.10873205417E+01	1.63852294859E+02	-2.36449326191E+01	1.12883373566E+01
6.06424200000E+09	-1.62803570557E+01	1.73308980152E+02	-2.11902716152E+01	1.63876381474E+02	-2.10896400937E+01	1.63630399231E+02	-2.36318975668E+01	1.11116300433E+01
6.07224100000E+09	-1.62817468717E+01	1.73058409607E+02	-2.11794878365E+01	1.63519826292E+02	-2.10841562521E+01	1.63387862419E+02	-2.36188851320E+01	1.08794325479E+01
6.08024000000E+09	-1.62837551250E+01	1.72825644529E+02	-2.11711892115E+01	1.63157245925E+02	-2.10781541517E+01	1.63138668166E+02	-2.36111941432E+01	1.06430904783E+01
6.08823900000E+09	-1.62840370720E+01	1.72552181450E+02	-2.11753794824E+01	1.62768676443E+02	-2.10678206062E+01	1.62874753222E+02	-2.36047228254E+01	1.05780849784E+01
6.09623800000E+09	-1.62837465423E+01	1.72288923279E+02	-2.11838410693E+01	1.62403311613E+02	-2.10662003896E+01	1.62567981578E+02	-2.36111942929E+01	1.03641455455E+01
6.10423700000E+09	-1.62833580938E+01	1.72038080346E+02	-2.11943399368E+01	1.62068468041E+02	-2.10580301814E+01	1.62256665021E+02	-2.36138685226E+01	1.01681293488E+01
6.11223600000E+09	-1.62816571690E+01	1.71804127844E+02	-2.12135178904E+01	1.61774203562E+02	-2.10587014952E+01	1.61933916683E+02	-2.36242631259E+01	9.90133843976E+00
6.12023500000E+09	-1.62780901556E+01	1.71539443923E+02	-2.12271206218E+01	1.61530262586E+02	-2.10628297392E+01	1.61636549810E+02	-2.36274030841E+01	9.69901748316E+00
6.12823400000E+09	-1.62770378847E+01	1.71276926230E+02	-2.12495040989E+01	1.61359628935E+02	-2.10695139809E+01	1.61311193527E+02	-2.36378499094E+01	9.38758201220E+00
6.13623300000E+09	-1.62696477527E+01	1.71044320402E+02	-2.12576051109E+01	1.61206428100E+02	-2.10753761471E+01	1.61036170516E+02	-2.36510366439E+01	9.13383508654E+00
6.14423200000E+09	-1.62681543298E+01	1.70797132606E+02	-2.12525113278E+01	1.61037111524E+02	-2.10807496817E+01	1.60783821587E+02	-2.36613832898E+01	8.86204931083E+00
6.15223100000E+09	-1.62644465428E+01	1.70602367455E+02	-2.12499220265E+01	1.60918615363E+02	-2.10864910660E+01	1.60553586151E+02	-2.36684125952E+01	8.48687743582E+00
6.16023000000E+09	-1.62653259668E+01	1.70378805207E+02	-2.12360062486E+01	1.60762841741E+02	-2.10914430585E+01	1.60383545945E+02	-2.36780454421E+01	8.13910620977E+00
6.16822900000E+09	-1.62635400109E+01	1.70163494257E+02	-2.12184352269E+01	1.60546919231E+02	-2.10868305995E+01	1.60181646615E+02	-2.36788820999E+01	7.76683648913E+00
6.17622800000E+09	-1.62605236009E+01	1.69977053357E+02	-2.11953983721E+01	1.60292391004E+02	-2.10804886395E+01	1.59995235718E+02	-2.36718054753E+01	7.45582553456E+00
6.18422700000E+09	-1.62670179456E+01	1.69734787744E+02	-2.11785985185E+01	1.59964225137E+02	-2.10692876511E+01	1.59729476145E+02	-2.36665316612E+01	7.11513161232E+00
6.19222600000E+09	-1.62659942533E+01	1.69527303298E+02	-2.11594514364E+01	1.59623592122E+02	-2.10549023538E+01	1.59483962465E+02	-2.36597603981E+01	6.78017119444E+00
6.20022500000E+09	-1.62717644123E+01	1.69297029472E+02	-2.11507963269E+01	1.59246500930E+02	-2.10423905507E+01	1.59148424985E+02	-2.36515277007E+01	6.44220473433E+00
6.20822400000E+09	-1.62774462414E+01	1.69048059910E+02	-2.11482427382E+01	1.58851412978E+02	-2.10288070992E+01	1.58851497376E+02	-2.36376884021E+01	6.13283331497E+00
6.21622300000E+09	-1.62790306994E+01	1.68799039784E+02	-2.11522331223E+01	1.58468773489E+02	-2.10248475049E+01	1.58446551692E+02	-2.36249612696E+01	5.87580765795E+00
6.22422200000E+09	-1.62819263811E+01	1.68551780090E+02	-2.11661746749E+01	1.58109291427E+02	-2.10252645573E+01	1.58104449706E+02	-2.36130173166E+01	5.65081290039E+00
6.23222100000E+09	-1.62874197176E+01	1.68282007952E+02	-2.11828598433E+01	1.57788726631E+02	-2.10286992598E+01	1.57744663736E+02	-2.36055075466E+01	5.36570814596E+00
6.24022000000E+09	-1.62904907897E+01	1.68004365155E+02	-2.11977714239E+01	1.57525046250E+02	-2.10428007826E+01	1.57421799310E+02	-2.35888668183E+01	5.16139442353E+00
6.24821900000E+09	-1.62917158755E+01	1.67747061614E+02	-2.12061738059E+01	1.57296138180E+02	-2.10593449137E+01	1.57132322925E+02	-2.35878980409E+01	4.94833536447E+00
6.25621800000E+09	-1.62916585414E+01	1.67461143194E+02	-2.12185869893E+01	1.57106696836E+02	-2.10728519426E+01	1.56894477262E+02	-2.35897056638E+01	4.68144917946E+00
6.26421700000E+09	-1.62855169639E+01	1.67162446256E+02	-2.12178530947E+01	1.56926752705E+02	-2.10814198549E+01	1.56698427613E+02	-2.35847680348E+01	4.49781463306E+00
6.27221600000E+09	-1.62893882624E+01	1.66893407302E+02	-2.12188940673E+01	1.56761300898E+02	-2.10822808609E+01	1.56498472659E+02	-2.35944169098E+01	4.26176487267E+00
6.28021500000E+09	-1.62835108853E+01	1.66616843360E+02	-2.12062012455E+01	1.56542652840E+02	-2.10813611231E+01	1.56341661491E+02	-2.35929407448E+01	4.04734319601E+00
6.28821400000E+09	-1.62791087729E+01	1.66385565257E+02	-2.11959630974E+01	1.56310783025E+02	-2.10719304536E+01	1.56188375507E+02	-2.36163462804E+01	3.71404747593E+00
6.29621300000E+09	-1.62675250617E+01	1.66134026404E+02	-2.11850807508E+01	1.56025945065E+02	-2.10589669641E+01	1.55888589318E+02	-2.36147484174E+01	3.46872849755E+00
6.30421200000E+09	-1.62683994422E+01	1.65857708223E+02	-2.11789210482E+01	1.55734820441E+02	-2.10366578048E+01	1.55659949456E+02	-2.36132270225E+01	3.16430337825E+00
6.31221100000E+09	-1.62599358211E+01	1.65608703435E+02	-2.11721406876E+01	1.55411598923E+02	-2.10256314557E+01	1.55329029408E+02	-2.36217187014E+01	2.88241359530E+00
6.32021000000E+09	-1.62525407654E+01	1.65420182815E+02	-2.11699431678E+01	1.55101635493E+02	-2.10192919226E+01	1.54999810061E+02	-2.36155635716E+01	2.52804272045E+00
6.32820900000E+09	-1.62477974681E+01	1.65200982245E+02	-2.11771861374E+01	1.54771916719E+02	-2.10082794277E+01	1.54644398926E+02	-2.36218972955E+01	2.20238895047E+00
6.33620800000E+09	-1.62541368524E+01	1.64936777970E+02	-2.11761488884E+01	1.54512663624E+02	-2.10116447643E+01	1.54252927205E+02	-2.36262199129E+01	1.86295405085E+00
6.34420700000E+09	-1.62449188509E+01	1.64728868495E+02	-2.11851864869E+01	1.54225633384E+02	-2.10201908684E+01	1.53911070069E+02	-2.36081406625E+01	1.55403125543E+00
6.35220600000E+09	-1.62438470751E+01	1.64464915385E+02	-2.11882727768E+01	1.54026472198E+02	-2.10367174444E+01	1.53607913052E+02	-2.35990226224E+01	1.25255248900E+00
6.36020500000E+09	-1.62514874334E+01	1.64259820519E+02	-2.11893463275E+01	1.53782900783E+02	-2.10460663915E+01	1.53300517822E+02	-2.35871974936E+01	9.20536705209E-01
6.36820400000E+09	-1.62527376218E+01	1.64033163347E+02	-2.11821035262E+01	1.53548341478E+02	-2.10581148889E+01	1.53086470821E+02	-2.35843057774E+01	6.56393819023E-01
6.37620300000E+09	-1.62475563216E+01	1.63812986166E+02	-2.11813037013E+01	1.53308363622E+02	-2.10673092437E+01	1.52861009127E+02	-2.35746931902E+01	4.07629780146E-01
6.38420200000E+09	-1.62520247566E+01	1.63519162805E+02	-2.11724918985E+01	1.53052890791E+02	-2.10712177206E+01	1.52721749054E+02	-2.35654424848E+01	1.64433088670E-01
6.39220100000E+09	-1.62544473293E+01	1.63267285964E+02	-2.11602945357E+01	1.52791387719E+02	-2.10719634708E+01	1.52575450168E+02	-2.35601213921E+01	-2.14660629722E-02
6.40020000000E+09	-1.62493447859E+01	1.63048734399E+02	-2.11494165744E+01	1.52440418763E+02	-2.10541915938E+01	1.52357536046E+02	-2.35552034695E+01	-2.16843286487E-01
6.40819900000E+09	-1.62504637278E+01	1.62752024885E+02	-2.11457501984E+01	1.52102088204E+02	-2.10403462822E+01	1.52143080657E+02	-2.35546270158E+01	-5.09719074379E-01
6.41619800000E+09	-1.62531854499E+01	1.62478274019E+02	-2.11459046942E+01	1.51769772403E+02	-2.10257055307E+01	1.51859249007E+02	-2.35604352766E+01	-6.95530610761E-01
6.42419700000E+09	-1.62480654291E+01	1.62214054577E+02	-2.11510546436E+01	1.51438757940E+02	-2.10090862724E+01	1.51575301062E+02	-2.35698460995E+01	-8.91363015089E-01
6.43219600000E+09	-1.62412273447E+01	1.61968518738E+02	-2.11627625418E+01	1.51145631689E+02	-2.09913216740E+01	1.51206915657E+02	-2.35886482090E+01	-1.21542854796E+00
6.44019500000E+09	-1.62323429576E+01	1.61723148501E+02	-2.11732178456E+01	1.50874784429E+02	-2.09825960658E+01	1.50803090765E+02	-2.35873975338E+01	-1.42515013238E+00
6.44819400000E+09	-1.62304776546E+01	1.61446901690E+02	-2.11866721709E+01	1.50652725416E+02	-2.09906250244E+01	1.50401864175E+02	-2.35985912159E+01	-1.71941127258E+00
6.45619300000E+09	-1.62283154691E+01	1.61136187646E+02	-2.11938669236E+01	1.50434641602E+02	-2.10027870356E+01	1.50055236133E+02	-2.36071409690E+01	-2.08698224385E+00
6.46419200000E+09	-1.62187655236E+01	1.60962866214E+02	-2.11942660340E+01	1.50247524500E+02	-2.10093510791E+01	1.49722519494E+02	-2.36136591198E+01	-2.36834303433E+00
6.47219100000E+09	-1.62160355263E+01	1.60717633112E+02	-2.11929666813E+01	1.50075158028E+02	-2.10301281816E+01	1.49422972795E+02	-2.36223053200E+01	-2.72387136177E+00
6.48019000000E+09	-1.62065399437E+01	1.60544521690E+02	-2.11888850804E+01	1.49856744134E+02	-2.10437806878E+01	1.49177810983E+02	-2.36218380784E+01	-3.05724937418E+00
6.48818900000E+09	-1.62041673607E+01	1.60330220165E+02	-2.11734038254E+01	1.49679903281E+02	-2.10498774095E+01	1.48980708114E+02	-2.36150613490E+01	-3.43932725191E+00
6.49618800000E+09	-1.62003664907E+01	1.60086123495E+02	-2.11551392297E+01	1.49425930638E+02	-2.10613673130E+01	1.48803959487E+02	-2.36164727091E+01	-3.82147162604E+00
6.50418700000E+09	-1.61987511816E+01	1.59880375097E+02	-2.11373429688E+01	1.49140360849E+02	-2.10638259660E+01	1.48608487604E+02	-2.36100336826E+01	-4.13146594134E+00
6.51218600000E+09	-1.61998553240E+01	1.59660678860E+02	-2.11309327040E+01	1.48802720665E+02	-2.10577162987E+01	1.48472023095E+02	-2.36048165896E+01	-4.46013786490E+00
6.52018500000E+09	-1.61995251464E+01	1.59446665282E+02	-2.11185496913E+01	1.48440356975E+02	-2.10389595376E+01	1.48282426909E+02	-2.35838265407E+01	-4.72497852878E+00
6.52818400000E+09	-1.62029086851E+01	1.59191082736E+02	-2.11182162774E+01	1.48054721581E+02	-2.10266076528E+01	1.48045849188E+02	-2.35690101798E+01	-5.01150092651E+00
6.53618300000E+09	-1.62024572395E+01	1.58949541382E+02	-2.11232309812E+01	1.47705073083E+02	-2.10054313654E+01	1.47771154809E+02	-2.35612667139E+01	-5.29268420064E+00
6.54418200000E+09	-1.62020352905E+01	1.58715634885E+02	-2.11370718194E+01	1.47362941558E+02	-2.09871864749E+01	1.47452071257E+02	-2.35535171049E+01	-5.45330357289E+00
6.55218100000E+09	-1.62026037501E+01	1.58449512250E+02	-2.11465678745E+01	1.47051953360E+02	-2.09786841654E+01	1.47089192147E+02	-2.35505240791E+01	-5.70221747431E+00
6.56018000000E+09	-1.62024158665E+01	1.58194511384E+02	-2.11639748090E+01	1.46790455103E+02	-2.09859622422E+01	1.46720937662E+02	-2.35525379303E+01	-5.91244924321E+00
6.56817900000E+09	-1.61989207761E+01	1.57921351756E+02	-2.11746934527E+01	1.46578804239E+02	-2.09853882680E+01	1.46366956242E+02	-2.35579154024E+01	-6.09589331668E+00
6.57617800000E+09	-1.61987960257E+01	1.57677693882E+02	-2.11862237169E+01	1.46411718233E+02	-2.09881509625E+01	1.46014811864E+02	-2.35553266806E+01	-6.32966172743E+00
6.58417700000E+09	-1.61979184179E+01	1.57363761133E+02	-2.11790268120E+01	1.46243220142E+02	-2.10080629252E+01	1.45695111750E+02	-2.35826229191E+01	-6.57551377236E+00
6.59217600000E+09	-1.61847309533E+01	1.57150459028E+02	-2.11776497737E+01	1.46080055075E+02	-2.10135959570E+01	1.45447200735E+02	-2.35838567936E+01	-6.86902865143E+00
6.60017500000E+09	-1.61810464019E+01	1.56910092485E+02	-2.11691371960E+01	1.45871168813E+02	-2.10178354316E+01	1.45207679479E+02	-2.35883056428E+01	-7.12441997308E+00
6.60817400000E+09	-1.61741720210E+01	1.56617466109E+02	-2.11483086091E+01	1.45646899781E+02	-2.10256355758E+01	1.45008771403E+02	-2.36135815675E+01	-7.44373000390E+00
6.61617300000E+09	-1.61667394074E+01	1.56416110186E+02	-2.11326244827E+01	1.45349981827E+02	-2.10268602862E+01	1.44782570388E+02	-2.36233142723E+01	-7.75024443252E+00
6.62417200000E+09	-1.61631672130E+01	1.56159561724E+02	-2.11220374138E+01	1.45063632344E+02	-2.10164622120E+01	1.44564426542E+02	-2.36292609489E+01	-8.11107007636E+00
6.63217100000E+09	-1.61582610049E+01	1.55991732056E+02	-2.11115613536E+01	1.44726369996E+02	-2.10141760919E+01	1.44315841135E+02	-2.36448392263E+01	-8.47525636625E+00
6.64017000000E+09	-1.61536404869E+01	1.55775907463E+02	-2.11079763019E+01	1.44348103226E+02	-2.10044334916E+01	1.44079536075E+02	-2.36443028895E+01	-8.89326295225E+00
6.64816900000E+09	-1.61477103216E+01	1.55559456443E+02	-2.11069168149E+01	1.43966165614E+02	-2.09935904792E+01	1.43751131240E+02	-2.36387158645E+01	-9.30466963842E+00
6.65616800000E+09	-1.61443173422E+01	1.55339991430E+02	-2.11187525574E+01	1.43659167384E+02	-2.09971172230E+01	1.43428980537E+02	-2.36368065467E+01	-9.61657194059E+00
6.66416700000E+09	-1.61438398343E+01	1.55129388075E+02	-2.11294724995E+01	1.43343914844E+02	-2.09969881429E+01	1.43107432814E+02	-2.36266606337E+01	-9.97539611383E+00
6.67216600000E+09	-1.61440656963E+01	1.54892212735E+02	-2.11419945836E+01	1.43082526786E+02	-2.09967750620E+01	1.42818668147E+02	-2.36143250685E+01	-1.03083307898E+01
6.68016500000E+09	-1.61419019525E+01	1.54685205378E+02	-2.11528289722E+01	1.42847879737E+02	-2.10046534567E+01	1.42514574569E+02	-2.36058328783E+01	-1.06177046012E+01
6.68816400000E+09	-1.61449487976E+01	1.54469629616E+02	-2.11579245989E+01	1.42658629164E+02	-2.10073427275E+01	1.42289782487E+02	-2.35864950332E+01	-1.09043574307E+01
6.69616300000E+09	-1.61498416311E+01	1.54266706811E+02	-2.11573419453E+01	1.42437199921E+02	-2.10157675511E+01	1.42017709014E+02	-2.35809553029E+01	-1.12036474763E+01
6.70416200000E+09	-1.61512602630E+01	1.53986510659E+02	-2.11501650451E+01	1.42256908017E+02	-2.10137297597E+01	1.41806947948E+02	-2.35764389959E+01	-1.14487038342E+01
6.71216100000E+09	-1.61522982109E+01	1.53754952918E+02	-2.11371657211E+01	1.42003732850E+02	-2.10121692742E+01	1.41619974944E+02	-2.35789264948E+01	-1.16184884233E+01
6.72016000000E+09	-1.61497515214E+01	1.53515009325E+02	-2.11284443178E+01	1.41828837912E+02	-2.10079763999E+01	1.41407255374E+02	-2.35656276046E+01	-1.18016519909E+01
6.72815900000E+09	-1.61543519524E+01	1.53214131607E+02	-2.11182809830E+01	1.41490479233E+02	-2.09908268532E+01	1.41178309833E+02	-2.35742846769E+01	-1.20371145775E+01
6.73615800000E+09	-1.61480986441E+01	1.53000132703E+02	-2.11079088672E+01	1.41202591397E+02	-2.09756023779E+01	1.40900255552E+02	-2.35823617989E+01	-1.22963376379E+01
6.74415700000E+09	-1.61440275162E+01	1.52689973728E+02	-2.11020230254E+01	1.40868771874E+02	-2.09608549194E+01	1.40572966580E+02	-2.35952920850E+01	-1.25683740134E+01
6.75215600000E+09	-1.61400885817E+01	1.52430868638E+02	-2.11008478252E+01	1.40520005165E+02	-2.09518266494E+01	1.40165841558E+02	-2.36058951017E+01	-1.27713719889E+01
6.76015500000E+09	-1.61347095458E+01	1.52180809613E+02	-2.11065383272E+01	1.40202286291E+02	-2.09489872211E+01	1.39832243060E+02	-2.36226829633E+01	-1.31439803533E+01
6.76815400000E+09	-1.61273322963E+01	1.51926681481E+02	-2.11200826501E+01	1.39890607397E+02	-2.09528823601E+01	1.39407371979E+02	-2.36422772974E+01	-1.34480469575E+01
6.77615300000E+09	-1.61236583495E+01	1.51691559088E+02	-2.11251908645E+01	1.39605342513E+02	-2.09634949093E+01	1.39044033484E+02	-2.36456983754E+01	-1.38259208786E+01
6.78415200000E+09	-1.61136763992E+01	1.51466445433E+02	-2.11357830375E+01	1.39385015848E+02	-2.09762431117E+01	1.38753830862E+02	-2.36628783228E+01	-1.42074141069E+01
6.79215100000E+09	-1.61082429341E+01	1.51251245918E+02	-2.11378542428E+01	1.39164023154E+02	-2.09970520780E+01	1.38442889727E+02	-2.36700318414E+01	-1.46345595705E+01
6.80015000000E+09	-1.61011787330E+01	1.51029936882E+02	-2.11413303829E+01	1.38941709868E+02	-2.10166977410E+01	1.38199710279E+02	-2.36668323119E+01	-1.50303817215E+01
6.80814900000E+09	-1.60949401779E+01	1.50827753589E+02	-2.11381135792E+01	1.38741243695E+02	-2.10327652146E+01	1.38056042050E+02	-2.36715531573E+01	-1.54561864260E+01
6.81614800000E+09	-1.60950175977E+01	1.50595295454E+02	-2.11336874779E+01	1.38544557165E+02	-2.10383706954E+01	1.37888645510E+02	-2.36680557328E+01	-1.58615831997E+01
6.82414700000E+09	-1.60904679781E+01	1.50381657270E+02	-2.11188797550E+01	1.38281589234E+02	-2.10382783183E+01	1.37759302224E+02	-2.36498922999E+01	-1.62692175931E+01
6.83214600000E+09	-1.60893261499E+01	1.50199243084E+02	-2.11089931408E+01	1.37993821402E+02	-2.10320738977E+01	1.37619071609E+02	-2.36465145482E+01	-1.65850978378E+01
6.84014500000E+09	-1.60867299895E+01	1.49916476082E+02	-2.10980850227E+01	1.37705633871E+02	-2.10117574474E+01	1.37483279200E+02	-2.36225277301E+01	-1.69689509704E+01
6.84814400000E+09	-1.60913822011E+01	1.49735237990E+02	-2.10890411742E+01	1.37382634121E+02	-2.09877570578E+01	1.37262283819E+02	-2.36036181333E+01	-1.72677962485E+01
6.85614300000E+09	-1.60864938199E+01	1.49497980347E+02	-2.10949421804E+01	1.37014423202E+02	-2.09640602062E+01	1.36969916891E+02	-2.35845966333E+01	-1.75478688530E+01
6.86414200000E+09	-1.60861394681E+01	1.49264494002E+02	-2.10966585902E+01	1.36679058973E+02	-2.09392165248E+01	1.36660989225E+02	-2.35800330854E+01	-1.77510355667E+01
6.87214100000E+09	-1.60846560753E+01	1.49032901407E+02	-2.11015549304E+01	1.36385673348E+02	-2.09256063533E+01	1.36235612360E+02	-2.35673204347E+01	-1.79865908630E+01
6.88014000000E+09	-1.60829428473E+01	1.48756168825E+02	-2.11167119578E+01	1.36132863074E+02	-2.09174217508E+01	1.35833156482E+02	-2.35641907647E+01	-1.81264422846E+01
6.88813900000E+09	-1.60825762997E+01	1.48512402326E+02	-2.11198308794E+01	1.35869660752E+02	-2.09125097989E+01	1.35400477246E+02	-2.35564318969E+01	-1.83776998798E+01
6.89613800000E+09	-1.60830105601E+01	1.48240109346E+02	-2.11268826417E+01	1.35662033365E+02	-2.09261482610E+01	1.34957160754E+02	-2.35747557088E+01	-1.86496639262E+01
6.90413700000E+09	-1.60735903106E+01	1.47977304307E+02	-2.11326257261E+01	1.35456370698E+02	-2.09419013697E+01	1.34583866680E+02	-2.35895898718E+01	-1.88594582993E+01
6.91213600000E+09	-1.60758964569E+01	1.47725660432E+02	-2.11273872871E+01	1.35249364591E+02	-2.09668480750E+01	1.34290263982E+02	-2.35910073983E+01	-1.91110570129E+01
6.92013500000E+09	-1.60687057251E+01	1.47510169851E+02	-2.11236841539E+01	1.35056259424E+02	-2.09843793539E+01	1.34022476797E+02	-2.36116304411E+01	-1.94719713580E+01
6.92813400000E+09	-1.60633034850E+01	1.47244838102E+02	-2.11077021538E+01	1.34828199395E+02	-2.10071083487E+01	1.33836382280E+02	-2.36156030540E+01	-1.97252643397E+01
6.93613300000E+09	-1.60530212336E+01	1.47010476517E+02	-2.10893340839E+01	1.34571765385E+02	-2.10190652671E+01	1.33662154931E+02	-2.36391182637E+01	-2.00661455748E+01
6.94413200000E+09	-1.60473992572E+01	1.46768591441E+02	-2.10786238980E+01	1.34263831228E+02	-2.10239330365E+01	1.33538704627E+02	-2.36453935723E+01	-2.04341588963E+01
6.95213100000E+09	-1.60412548932E+01	1.46538995941E+02	-2.10730598644E+01	1.33894416950E+02	-2.10222424592E+01	1.33357712234E+02	-2.36646642575E+01	-2.08794811932E+01
6.96013000000E+09	-1.60325511199E+01	1.46331607488E+02	-2.10662112149E+01	1.33580222135E+02	-2.10128437013E+01	1.33224911798E+02	-2.36638472594E+01	-2.12605845897E+01
6.96812900000E+09	-1.60326723589E+01	1.46116535806E+02	-2.10632357502E+01	1.33214312255E+02	-2.09951016574E+01	1.32997459549E+02	-2.36643845942E+01	-2.16345643394E+01
6.97612800000E+09	-1.60317331168E+01	1.45907945579E+02	-2.10678532184E+01	1.32860875262E+02	-2.09755770296E+01	1.32793937442E+02	-2.36511324933E+01	-2.20384664474E+01
6.98412700000E+09	-1.60258708399E+01	1.45710157960E+02	-2.10811294050E+01	1.32522425820E+02	-2.09599431601E+01	1.32486363740E+02	-2.36503058832E+01	-2.24154077327E+01
6.99212600000E+09	-1.60284194418E+01	1.45490457955E+02	-2.10974042606E+01	1.32247293992E+02	-2.09442164684E+01	1.32177867681E+02	-2.36497459562E+01	-2.27768997286E+01
7.00012500000E+09	-1.60214784248E+01	1.45280872089E+02	-2.11050672635E+01	1.32009220897E+02	-2.09322895740E+01	1.31797386333E+02	-2.36290114947E+01	-2.31795123364E+01
7.00812400000E+09	-1.60271339635E+01	1.45052393580E+02	-2.11223489662E+01	1.31838995255E+02	-2.09306845721E+01	1.31412670006E+02	-2.36098615402E+01	-2.34493293786E+01
7.01612300000E+09	-1.60243274534E+01	1.44783374549E+02	-2.11226764276E+01	1.31612212646E+02	-2.09339132568E+01	1.31130128200E+02	-2.35964052917E+01	-2.37994315843E+01
7.02412200000E+09	-1.60236224645E+01	1.44553214214E+02	-2.11202820923E+01	1.31473755895E+02	-2.09402751207E+01	1.30730531120E+02	-2.35922459119E+01	-2.40959663268E+01
7.03212100000E+09	-1.60244922045E+01	1.44332130314E+02	-2.11110508710E+01	1.31281873515E+02	-2.09528602568E+01	1.30417585659E+02	-2.35828831981E+01	-2.42885555146E+01
7.04012000000E+09	-1.60232308386E+01	1.44047360225E+02	-2.11017440845E+01	1.31091416401E+02	-2.09554359280E+01	1.30144813459E+02	-2.35859676120E+01	-2.45624938356E+01
7.04811900000E+09	-1.60185901476E+01	1.43817175695E+02	-2.10871859289E+01	1.30814816827E+02	-2.09632027344E+01	1.29860278335E+02	-2.35767158043E+01	-2.48239908762E+01
7.05611800000E+09	-1.60207701246E+01	1.43563213646E+02	-2.10715301785E+01	1.30535589910E+02	-2.09707296794E+01	1.29639775791E+02	-2.35891855212E+01	-2.50958585589E+01
7.06411700000E+09	-1.60114830091E+01	1.43313798450E+02	-2.10600935293E+01	1.30201773026E+02	-2.09699987284E+01	1.29422313980E+02	-2.35922198617E+01	-2.53885380294E+01
7.07211600000E+09	-1.60032948724E+01	1.43057091989E+02	-2.10504447301E+01	1.29860954395E+02	-2.09735668108E+01	1.29151235402E+02	-2.35994619280E+01	-2.56485076332E+01
7.08011500000E+09	-1.60011922010E+01	1.42800828985E+02	-2.10495190748E+01	1.29460910478E+02	-2.09622296351E+01	1.28945465618E+02	-2.36154428553E+01	-2.59772461867E+01
7.08811400000E+09	-1.59893747035E+01	1.42547220647E+02	-2.10510593938E+01	1.29109235112E+02	-2.09614416254E+01	1.28643106280E+02	-2.36237696416E+01	-2.63082923026E+01
7.09611300000E+09	-1.59786138946E+01	1.42326400102E+02	-2.10591630196E+01	1.28806840338E+02	-2.09590583630E+01	1.28359978303E+02	-2.36202168304E+01	-2.66620564229E+01
7.10411200000E+09	-1.59795277059E+01	1.42135286914E+02	-2.10722937573E+01	1.28483550120E+02	-2.09651987675E+01	1.28086979706E+02	-2.36386406707E+01	-2.69927780701E+01
7.11211100000E+09	-1.59677094091E+01	1.41898871771E+02	-2.10831808422E+01	1.28215671995E+02	-2.09637886353E+01	1.27829398093E+02	-2.36461640592E+01	-2.74134196042E+01
7.12011000000E+09	-1.59605206534E+01	1.41679191979E+02	-2.10937781045E+01	1.28024757500E+02	-2.09636882541E+01	1.27579517518E+02	-2.36374512186E+01	-2.79052121419E+01
7.12810900000E+09	-1.59577550051E+01	1.41486624643E+02	-2.10997900715E+01	1.27789365953E+02	-2.09647423770E+01	1.27329423822E+02	-2.36331245411E+01	-2.82526090742E+01
7.13610800000E+09	-1.59542220581E+01	1.41274580124E+02	-2.11017705080E+01	1.27596756595E+02	-2.09661306125E+01	1.27097717605E+02	-2.36297190090E+01	-2.86363668018E+01
7.14410700000E+09	-1.59511405023E+01	1.41045655014E+02	-2.10979427143E+01	1.27433076351E+02	-2.09600394445E+01	1.26834612806E+02	-2.36228985243E+01	-2.90235851656E+01
7.15210600000E+09	-1.59505661770E+01	1.40864107230E+02	-2.10931837248E+01	1.27183706481E+02	-2.09542986349E+01	1.26627156139E+02	-2.36056782375E+01	-2.93906199678E+01
7.16010500000E+09	-1.59514449053E+01	1.40637980923E+02	-2.10813162698E+01	1.26987435801E+02	-2.09438393784E+01	1.26332480132E+02	-2.35943533324E+01	-2.97584402984E+01
7.16810400000E+09	-1.59523412621E+01	1.40412405878E+02	-2.10703516438E+01	1.26687032284E+02	-2.09367702293E+01	1.26105816870E+02	-2.35848248535E+01	-3.00575867566E+01
7.17610300000E+09	-1.59466948763E+01	1.40163425055E+02	-2.10539939418E+01	1.26404007734E+02	-2.09295661193E+01	1.25765069368E+02	-2.35689912695E+01	-3.03688326256E+01
7.18410200000E+09	-1.59504283504E+01	1.39927871114E+02	-2.10470120676E+01	1.26058981545E+02	-2.09154292218E+01	1.25469002863E+02	-2.35546898815E+01	-3.05724617875E+01
7.19210100000E+09	-1.59481344754E+01	1.39717715380E+02	-2.10490080060E+01	1.25722820374E+02	-2.09073699359E+01	1.25133380644E+02	-2.35534476389E+01	-3.09074853495E+01
7.20010000000E+09	-1.59438304396E+01	1.39447445875E+02	-2.10480186262E+01	1.25409680602E+02	-2.09122352287E+01	1.24751887933E+02	-2.35550227054E+01	-3.10934323830E+01
7.20809900000E+09	-1.59406982390E+01	1.39185330390E+02	-2.10530161039E+01	1.25112535050E+02	-2.09141135408E+01	1.24425774915E+02	-2.35485414047E+01	-3.12981678383E+01
7.21609800000E+09	-1.59369944135E+01	1.38928441480E+02	-2.10552909059E+01	1.24815078548E+02	-2.09209004148E+01	1.24055147728E+02	-2.35708072009E+01	-3.16697729656E+01
7.22409700000E+09	-1.59338318203E+01	1.38664832515E+02	-2.10627985353E+01	1.24534961224E+02	-2.09331687463E+01	1.23743523822E+02	-2.35709076894E+01	-3.19548242496E+01
7.23209600000E+09	-1.59223582369E+01	1.38474368995E+02	-2.10788409280E+01	1.24276773285E+02	-2.09521711425E+01	1.23452422103E+02	-2.35716422736E+01	-3.22709313347E+01
7.24009500000E+09	-1.59161008037E+01	1.38234527480E+02	-2.10813004345E+01	1.24066836610E+02	-2.09695052289E+01	1.23225247324E+02	-2.35793683486E+01	-3.26041073448E+01
7.24809400000E+09	-1.59098372898E+01	1.37980108826E+02	-2.10774014995E+01	1.23850502352E+02	-2.09797148925E+01	1.22999528473E+02	-2.35909682435E+01	-3.29946975024E+01
7.25609300000E+09	-1.59011499253E+01	1.37771535840E+02	-2.10729829391E+01	1.23630664320E+02	-2.09875708815E+01	1.22847271909E+02	-2.35954054308E+01	-3.33744180729E+01
7.26409200000E+09	-1.58966878396E+01	1.37534158681E+02	-2.10667566695E+01	1.23399065508E+02	-2.09896209999E+01	1.22645060296E+02	-2.36009734093E+01	-3.37228097758E+01
7.27209100000E+09	-1.58858026146E+01	1.37310464246E+02	-2.10569931866E+01	1.23150752425E+02	-2.09856212027E+01	1.22485061572E+02	-2.35911755568E+01	-3.40993831427E+01
7.28009000000E+09	-1.58819483168E+01	1.37161471957E+02	-2.10495532275E+01	1.22854605562E+02	-2.09739577516E+01	1.22343054792E+02	-2.35830206805E+01	-3.45543401428E+01
7.28808900000E+09	-1.58792718367E+01	1.36967635586E+02	-2.10459725113E+01	1.22548756546E+02	-2.09535414760E+01	1.22144260364E+02	-2.35781346776E+01	-3.49200371062E+01
7.29608800000E+09	-1.58722086843E+01	1.36767125903E+02	-2.10447778580E+01	1.22264822489E+02	-2.09347522397E+01	1.21876448059E+02	-2.35616057696E+01	-3.52922233958E+01
7.30408700000E+09	-1.58723875049E+01	1.36547355494E+02	-2.10431978172E+01	1.21983275714E+02	-2.09156047274E+01	1.21581088293E+02	-2.35425337813E+01	-3.56824829982E+01
7.31208600000E+09	-1.58711006294E+01	1.36327783558E+02	-2.10450466981E+01	1.21639256170E+02	-2.09030444871E+01	1.21214223866E+02	-2.35277805315E+01	-3.59849197176E+01
7.32008500000E+09	-1.58698405820E+01	1.36136256663E+02	-2.10491157728E+01	1.21346367689E+02	-2.08920211672E+01	1.20843765946E+02	-2.35026301853E+01	-3.63422847958E+01
7.32808400000E+09	-1.58743798173E+01	1.35890719646E+02	-2.10500251399E+01	1.21062766046E+02	-2.08850114755E+01	1.20437558801E+02	-2.34882189766E+01	-3.66153722134E+01
7.33608300000E+09	-1.58749493932E+01	1.35668760233E+02	-2.10559519151E+01	1.20830835552E+02	-2.08896861360E+01	1.20050764061E+02	-2.34803088198E+01	-3.68541797004E+01
7.34408200000E+09	-1.58682215414E+01	1.35426210146E+02	-2.10619818050E+01	1.20606378246E+02	-2.08977048603E+01	1.19645198398E+02	-2.34759239391E+01	-3.71044725195E+01
7.35208100000E+09	-1.58694596730E+01	1.35193713730E+02	-2.10605290506E+01	1.20376988065E+02	-2.09142619974E+01	1.19319806279E+02	-2.34698014785E+01	-3.73258379850E+01
7.36008000000E+09	-1.58747936678E+01	1.34921509482E+02	-2.10549334017E+01	1.20108505029E+02	-2.09343629552E+01	1.19018024950E+02	-2.34602191174E+01	-3.74877738053E+01
7.36807900000E+09	-1.58690949269E+01	1.34656529796E+02	-2.10527818649E+01	1.19905011475E+02	-2.09490332452E+01	1.18785084773E+02	-2.34735725030E+01	-3.78867864290E+01
7.37607800000E+09	-1.58648370000E+01	1.34396364114E+02	-2.10462175873E+01	1.19599310741E+02	-2.09687851450E+01	1.18532032983E+02	-2.34855119893E+01	-3.80929219266E+01
7.38407700000E+09	-1.58558145294E+01	1.34162369938E+02	-2.10364570520E+01	1.19337537026E+02	-2.09787393174E+01	1.18403551108E+02	-2.34904721388E+01	-3.83532623027E+01
7.39207600000E+09	-1.58461215687E+01	1.33891307596E+02	-2.10260778902E+01	1.19042518462E+02	-2.09784409793E+01	1.18251937209E+02	-2.35006162946E+01	-3.86532830677E+01
7.40007500000E+09	-1.58425690011E+01	1.33689480807E+02	-2.10267687630E+01	1.18744811722E+02	-2.09759704561E+01	1.18089780321E+02	-2.35074960842E+01	-3.90140277694E+01
7.40807400000E+09	-1.58335231740E+01	1.33427346096E+02	-2.10224749707E+01	1.18443688530E+02	-2.09648752401E+01	1.17923098668E+02	-2.35151835033E+01	-3.94500508415E+01
7.41607300000E+09	-1.58248678442E+01	1.33179462263E+02	-2.10269097676E+01	1.18132559187E+02	-2.09478193488E+01	1.17720022526E+02	-2.35169075318E+01	-3.97606917800E+01
7.42407200000E+09	-1.58184142137E+01	1.33000100497E+02	-2.10309047656E+01	1.17831020686E+02	-2.09347608569E+01	1.17446522505E+02	-2.35211824625E+01	-4.01849261862E+01
7.43207100000E+09	-1.58075143314E+01	1.32782654388E+02	-2.10328420544E+01	1.17515016093E+02	-2.09105966445E+01	1.17150429020E+02	-2.35215788794E+01	-4.05865236001E+01
7.44007000000E+09	-1.57962618475E+01	1.32549239637E+02	-2.10348717817E+01	1.17259075524E+02	-2.08947011835E+01	1.16822901061E+02	-2.35052014455E+01	-4.09707300899E+01
7.44806900000E+09	-1.57932037624E+01	1.32389389687E+02	-2.10412025094E+01	1.17019447730E+02	-2.08827185201E+01	1.16457797142E+02	-2.34888346246E+01	-4.13691030775E+01
7.45606800000E+09	-1.57880491312E+01	1.32177550402E+02	-2.10437812511E+01	1.16778339926E+02	-2.08793113311E+01	1.16056963414E+02	-2.34825058147E+01	-4.17723669023E+01
7.46406700000E+09	-1.57885095746E+01	1.31971719619E+02	-2.10457436308E+01	1.16589961882E+02	-2.08794143762E+01	1.15660774204E+02	-2.34688880741E+01	-4.21601274041E+01
7.47206600000E+09	-1.57869264123E+01	1.31792289536E+02	-2.10399517040E+01	1.16321177432E+02	-2.08929813016E+01	1.15294302885E+02	-2.34565237088E+01	-4.24170356283E+01
7.48006500000E+09	-1.57830661854E+01	1.31580255973E+02	-2.10370782633E+01	1.16093799069E+02	-2.09047114938E+01	1.14955171464E+02	-2.34385157198E+01	-4.27339103147E+01
7.48806400000E+09	-1.57897078637E+01	1.31341225683E+02	-2.10254749657E+01	1.15850972157E+02	-2.09205649788E+01	1.14646813213E+02	-2.34131528677E+01	-4.30054728138E+01
7.49606300000E+09	-1.57880026808E+01	1.31132436890E+02	-2.10265332702E+01	1.15553666420E+02	-2.09385542259E+01	1.14396054457E+02	-2.34042410550E+01	-4.32298325043E+01
7.50406200000E+09	-1.57887647569E+01	1.30927850012E+02	-2.10165531375E+01	1.15299698796E+02	-2.09522830395E+01	1.14143367432E+02	-2.34030519688E+01	-4.34610764175E+01
7.51206100000E+09	-1.57858305171E+01	1.30655017409E+02	-2.10080650072E+01	1.14960991035E+02	-2.09613690587E+01	1.13988814082E+02	-2.33970791157E+01	-4.36768270603E+01
7.52006000000E+09	-1.57873507527E+01	1.30421714846E+02	-2.10051150677E+01	1.14640538573E+02	-2.09670885762E+01	1.13824077000E+02	-2.33980563789E+01	-4.39217930691E+01
7.52805900000E+09	-1.57861762088E+01	1.30170339698E+02	-2.10115217779E+01	1.14329511072E+02	-2.09627605325E+01	1.13674645053E+02	-2.33933018888E+01	-4.42097844516E+01
7.53605800000E+09	-1.57787150350E+01	1.29935591474E+02	-2.10082140130E+01	1.14025343336E+02	-2.09556502742E+01	1.13452543911E+02	-2.34039136153E+01	-4.44634194526E+01
7.54405700000E+09	-1.57696001305E+01	1.29642149641E+02	-2.10172527778E+01	1.13728987809E+02	-2.09427451994E+01	1.13261349075E+02	-2.34194830826E+01	-4.48014876381E+01
7.55205600000E+09	-1.57684152206E+01	1.29402754355E+02	-2.10276274935E+01	1.13487792383E+02	-2.09270507032E+01	1.13003003244E+02	-2.34215530947E+01	-4.50692429339E+01
7.56005500000E+09	-1.57534224317E+01	1.29160992283E+02	-2.10320668229E+01	1.13213499043E+02	-2.09184635793E+01	1.12710658571E+02	-2.34279848683E+01	-4.54426555984E+01
7.56805400000E+09	-1.57453209847E+01	1.28926147190E+02	-2.10345119722E+01	1.12980335906E+02	-2.09024462585E+01	1.12423951046E+02	-2.34372181418E+01	-4.58297140098E+01
7.57605300000E+09	-1.57364570344E+01	1.28695559149E+02	-2.10376414550E+01	1.12734415937E+02	-2.08911845603E+01	1.12061451381E+02	-2.34305470432E+01	-4.62507599015E+01
7.58405200000E+09	-1.57264785310E+01	1.28467946631E+02	-2.10365140677E+01	1.12549034894E+02	-2.08882027585E+01	1.11732739202E+02	-2.34292878640E+01	-4.66686971994E+01
7.59205100000E+09	-1.57188966066E+01	1.28310929614E+02	-2.10319109599E+01	1.12331492579E+02	-2.08929563956E+01	1.11408187343E+02	-2.34219318790E+01	-4.70691633076E+01
7.60005000000E+09	-1.57089287022E+01	1.28064098720E+02	-2.10238874714E+01	1.12082852187E+02	-2.09047022429E+01	1.11090932445E+02	-2.34126109478E+01	-4.75046304921E+01
7.60804900000E+09	-1.57039308997E+01	1.27916848960E+02	-2.10177079523E+01	1.11786518507E+02	-2.09083052285E+01	1.10753915412E+02	-2.34009192478E+01	-4.78604668700E+01
7.61604800000E+09	-1.56962644891E+01	1.27712611088E+02	-2.10113600972E+01	1.11488389731E+02	-2.09155515397E+01	1.10453668322E+02	-2.33767744185E+01	-4.81887946956E+01
7.62404700000E+09	-1.56914976248E+01	1.27552164075E+02	-2.10009803663E+01	1.11246218379E+02	-2.09183559840E+01	1.10218126813E+02	-2.33695052902E+01	-4.85659150267E+01
7.63204600000E+09	-1.56869822372E+01	1.27353299584E+02	-2.09945678615E+01	1.10918255321E+02	-2.09197284307E+01	1.09987028464E+02	-2.33398556467E+01	-4.88753921304E+01
7.64004500000E+09	-1.56869060255E+01	1.27134306125E+02	-2.09926666298E+01	1.10594669514E+02	-2.09276136179E+01	1.09727059414E+02	-2.33189498703E+01	-4.91100760052E+01
7.64804400000E+09	-1.56886343384E+01	1.26959489557E+02	-2.09947904965E+01	1.10314883663E+02	-2.09211300626E+01	1.09498074564E+02	-2.33072111010E+01	-4.93382594973E+01
7.65604300000E+09	-1.56927140579E+01	1.26748113217E+02	-2.09968192811E+01	1.09944684537E+02	-2.09200500977E+01	1.09233727039E+02	-2.32929539736E+01	-4.95437493101E+01
7.66404200000E+09	-1.56887808557E+01	1.26509365046E+02	-2.09930692775E+01	1.09677494975E+02	-2.09103933084E+01	1.08964724423E+02	-2.32945494976E+01	-4.97575360153E+01
7.67204100000E+09	-1.56964720987E+01	1.26264184266E+02	-2.10103197450E+01	1.09400846651E+02	-2.09119680037E+01	1.08650960608E+02	-2.32904611056E+01	-4.99794692433E+01
7.68004000000E+09	-1.56917219635E+01	1.25996368051E+02	-2.10136785479E+01	1.09130678024E+02	-2.09141341521E+01	1.08387691816E+02	-2.32866723244E+01	-5.02457959175E+01
7.68803900000E+09	-1.56885858899E+01	1.25789153918E+02	-2.10149239656E+01	1.08903403415E+02	-2.09116901642E+01	1.08078580150E+02	-2.33007448258E+01	-5.04649082093E+01
7.69603800000E+09	-1.56846860590E+01	1.25500249791E+02	-2.10208658143E+01	1.08645182907E+02	-2.09193872167E+01	1.07784910398E+02	-2.33072477564E+01	-5.08367705352E+01
7.70403700000E+09	-1.56824163314E+01	1.25238951927E+02	-2.10176120049E+01	1.08408700415E+02	-2.09238281403E+01	1.07516455557E+02	-2.33167035534E+01	-5.10912280881E+01
7.71203600000E+09	-1.56744077505E+01	1.25011228896E+02	-2.10140122107E+01	1.08227294620E+02	-2.09275910992E+01	1.07258752366E+02	-2.33346618062E+01	-5.14316451604E+01
7.72003500000E+09	-1.56659856075E+01	1.24753422002E+02	-2.10165879577E+01	1.07968846368E+02	-2.09289643172E+01	1.07041896602E+02	-2.33387704565E+01	-5.18309794959E+01
7.72803400000E+09	-1.56539329961E+01	1.24530740848E+02	-2.10051343103E+01	1.07726658544E+02	-2.09256263185E+01	1.06810074290E+02	-2.33445730012E+01	-5.22392068082E+01
7.73603300000E+09	-1.56415028596E+01	1.24282450593E+02	-2.10058407316E+01	1.07479033831E+02	-2.09208404524E+01	1.06607418407E+02	-2.33345764127E+01	-5.26864787208E+01
7.74403200000E+09	-1.56360608285E+01	1.24111939493E+02	-2.09936727750E+01	1.07216212042E+02	-2.09182630566E+01	1.06368447633E+02	-2.33377783524E+01	-5.30203644309E+01
7.75203100000E+09	-1.56255465005E+01	1.23882780167E+02	-2.09901996967E+01	1.06918514516E+02	-2.09114014192E+01	1.06104061344E+02	-2.33282976408E+01	-5.34593302471E+01
7.76003000000E+09	-1.56109310055E+01	1.23678956428E+02	-2.09795266771E+01	1.06627280253E+02	-2.09036103842E+01	1.05811521943E+02	-2.33061679549E+01	-5.38709200361E+01
7.76802900000E+09	-1.56056236219E+01	1.23532220681E+02	-2.09742524036E+01	1.06356335107E+02	-2.08922879446E+01	1.05524003931E+02	-2.32920338169E+01	-5.41998412665E+01
7.77602800000E+09	-1.55974493177E+01	1.23332707675E+02	-2.09793771264E+01	1.06009401851E+02	-2.08790147280E+01	1.05160763631E+02	-2.32636857812E+01	-5.46597143556E+01
7.78402700000E+09	-1.55939965950E+01	1.23166469287E+02	-2.09807865666E+01	1.05721432184E+02	-2.08779365250E+01	1.04789790651E+02	-2.32452907620E+01	-5.49476018776E+01
7.79202600000E+09	-1.55981178800E+01	1.23026942152E+02	-2.09795098584E+01	1.05425216369E+02	-2.08806040638E+01	1.04459677250E+02	-2.32224980680E+01	-5.51745728653E+01
7.80002500000E+09	-1.55994223393E+01	1.22822234063E+02	-2.09834898406E+01	1.05113469535E+02	-2.08932065289E+01	1.04073297405E+02	-2.32080652184E+01	-5.54467502842E+01
7.80802400000E+09	-1.55973691252E+01	1.22625629373E+02	-2.09891642602E+01	1.04815224999E+02	-2.09061938448E+01	1.03784857605E+02	-2.31915471089E+01	-5.56078267355E+01
7.81602300000E+09	-1.56040949855E+01	1.22440260214E+02	-2.09881657389E+01	1.04528432015E+02	-2.09179414667E+01	1.03521307975E+02	-2.31703993692E+01	-5.58368356606E+01
7.82402200000E+09	-1.56022132726E+01	1.22167951325E+02	-2.09912605777E+01	1.04305955428E+02	-2.09359854168E+01	1.03290959825E+02	-2.31798703774E+01	-5.60366439694E+01
7.83202100000E+09	-1.56025092291E+01	1.21950070305E+02	-2.09901980909E+01	1.04024140584E+02	-2.09409601881E+01	1.03145905302E+02	-2.31687965175E+01	-5.62501018634E+01
7.84002000000E+09	-1.56108879125E+01	1.21679789813E+02	-2.09904059885E+01	1.03748223979E+02	-2.09434130664E+01	1.02999435804E+02	-2.31731800417E+01	-5.64261682415E+01
7.84801900000E+09	-1.56022978681E+01	1.21413744917E+02	-2.09938056591E+01	1.03526343023E+02	-2.09438684949E+01	1.02812835005E+02	-2.31788452083E+01	-5.66775516322E+01
7.85601800000E+09	-1.55982207599E+01	1.21169548736E+02	-2.09920746358E+01	1.03281202076E+02	-2.09252742352E+01	1.02631688715E+02	-2.31886004535E+01	-5.70166438447E+01
7.86401700000E+09	-1.55953811433E+01	1.20869224760E+02	-2.09938287286E+01	1.03025197444E+02	-2.09088487149E+01	1.02394488364E+02	-2.32114507874E+01	-5.73597845289E+01
7.87201600000E+09	-1.55883686732E+01	1.20620518518E+02	-2.09933913041E+01	1.02762636544E+02	-2.08935912420E+01	1.02162850050E+02	-2.32179364363E+01	-5.76585215116E+01
7.88001500000E+09	-1.55771086970E+01	1.20386485098E+02	-2.09941858069E+01	1.02492246528E+02	-2.08752071507E+01	1.01801288038E+02	-2.32361736790E+01	-5.79495236263E+01
7.88801400000E+09	-1.55621344981E+01	1.20146005290E+02	-2.09871784864E+01	1.02258844632E+02	-2.08570349104E+01	1.01432440518E+02	-2.32344642412E+01	-5.84733837095E+01
7.89601300000E+09	-1.55516360888E+01	1.19915448227E+02	-2.09842492954E+01	1.02026099767E+02	-2.08573359501E+01	1.01003039066E+02	-2.32263962291E+01	-5.89286233029E+01
7.90401200000E+09	-1.55452093025E+01	1.19697639029E+02	-2.09820374768E+01	1.01760309999E+02	-2.08600291914E+01	1.00574124734E+02	-2.32292016883E+01	-5.94047862649E+01
7.91201100000E+09	-1.55305963191E+01	1.19522588529E+02	-2.09780742937E+01	1.01518208505E+02	-2.08687907955E+01	1.00206348436E+02	-2.32057603596E+01	-5.98354339814E+01
7.92001000000E+09	-1.55148763584E+01	1.19309550535E+02	-2.09729392072E+01	1.01238570143E+02	-2.08839663554E+01	9.98552875932E+01	-2.31746743856E+01	-6.03257651660E+01
7.92800900000E+09	-1.55107804626E+01	1.19164347311E+02	-2.09681992329E+01	1.01015065619E+02	-2.09097826332E+01	9.95914873441E+01	-2.31536507154E+01	-6.06817533468E+01
7.93600800000E+09	-1.55032917798E+01	1.18975458424E+02	-2.09616229256E+01	1.00661815696E+02	-2.09254739369E+01	9.93718542491E+01	-2.31361372877E+01	-6.09215855842E+01
7.94400700000E+09	-1.54958350999E+01	1.18866486336E+02	-2.09555983864E+01	1.00417011519E+02	-2.09489448345E+01	9.91929496865E+01	-2.31140012862E+01	-6.12079596570E+01
7.95200600000E+09	-1.54958513401E+01	1.18694181495E+02	-2.09512835657E+01	1.00084059582E+02	-2.09555007731E+01	9.90673402981E+01	-2.30772908202E+01	-6.15008142668E+01
7.96000500000E+09	-1.54969059397E+01	1.18505314098E+02	-2.09498299173E+01	9.97675982270E+01	-2.09477990518E+01	9.89711681529E+01	-2.30435086532E+01	-6.17754994226E+01
7.96800400000E+09	-1.55020702636E+01	1.18320922591E+02	-2.09511261158E+01	9.94387599565E+01	-2.09433614011E+01	9.88331183466E+01	-2.30291143149E+01	-6.18667116189E+01
7.97600300000E+09	-1.54997545802E+01	1.18115901886E+02	-2.09571783411E+01	9.91406302505E+01	-2.09131163201E+01	9.86107120462E+01	-2.30105549809E+01	-6.20718072843E+01
7.98400200000E+09	-1.55066411164E+01	1.17950586876E+02	-2.09587602014E+01	9.88204833216E+01	-2.08936689514E+01	9.83782973982E+01	-2.30050364408E+01	-6.22689649785E+01
7.99200100000E+09	-1.55027172788E+01	1.17696874196E+02	-2.09721914817E+01	9.85057841866E+01	-2.08676686774E+01	9.80662050911E+01	-2.30019605880E+01	-6.23445048452E+01
8.00000000000E+09	-1.55082186783E+01	1.17452968660E+02	-2.09750994884E+01	9.82496297622E+01	-2.08439416710E+01	9.76848301950E+01	-2.30047605296E+01	-6.25262021028E+01
