# Hz S DB R 50
! CMT, CMT804U, 21380002, 24.2.2/4
! Date: 09/12/2025 13:13:09
! Data: Format (Calibration Info)
! Freq	S11:dB/Ang(F2)
1.00000000000E+06	-3.21132644573E+01	1.73890199734E+02
4.09950000000E+07	-1.84415532372E+01	9.36906320013E+01
8.09900000000E+07	-1.29109197531E+01	8.04248069286E+01
1.20985000000E+08	-9.71858534937E+00	7.11084941819E+01
1.60980000000E+08	-7.59976519136E+00	6.32569087884E+01
2.00975000000E+08	-6.08863934184E+00	5.63815962410E+01
2.40970000000E+08	-4.99456451510E+00	5.00051609341E+01
2.80965000000E+08	-4.22218616817E+00	4.44252632165E+01
3.20960000000E+08	-3.47951105422E+00	3.95608420530E+01
3.60955000000E+08	-2.98967307977E+00	3.49532561103E+01
4.00950000000E+08	-2.56685398701E+00	3.06943177000E+01
4.40945000000E+08	-2.22414226097E+00	2.65550150461E+01
4.80940000000E+08	-1.95273433296E+00	2.26509664351E+01
5.20935000000E+08	-1.99241501260E+00	1.95419067702E+01
5.60930000000E+08	-1.56922211285E+00	1.70058434312E+01
6.00925000000E+08	-1.37668449839E+00	1.36077745903E+01
6.40920000000E+08	-1.23451386910E+00	1.03276581672E+01
6.80915000000E+08	-1.19086680666E+00	7.01686304539E+00
7.20910000000E+08	-1.28568526815E+00	4.50860339237E+00
7.60905000000E+08	-1.23117694283E+00	3.27841765781E+00
8.00900000000E+08	-1.07780912041E+00	1.18958071146E+00
8.40895000000E+08	-9.90415777197E-01	-1.72375014275E+00
8.80890000000E+08	-1.03963666959E+00	-4.35252522016E+00
9.20885000000E+08	-1.26411584011E+00	-6.65285979728E+00
9.60880000000E+08	-1.29061415692E+00	-5.44799313992E+00
1.00087500000E+09	-9.05145282014E-01	-7.65377053580E+00
1.04087000000E+09	-8.33807216771E-01	-1.10663494995E+01
1.08086500000E+09	-9.87143617854E-01	-1.36844527163E+01
1.12086000000E+09	-1.16969260597E+00	-1.49643531359E+01
1.16085500000E+09	-1.13682607191E+00	-1.55555109343E+01
1.20085000000E+09	-9.36704223564E-01	-1.74859159322E+01
1.24084500000E+09	-9.06516936641E-01	-2.03879485783E+01
1.28084000000E+09	-1.04522460048E+00	-2.36376844005E+01
1.32083500000E+09	-1.53795196264E+00	-2.55669546136E+01
1.36083000000E+09	-1.55879778726E+00	-2.38708318024E+01
1.40082500000E+09	-1.40951691802E+00	-2.56178782361E+01
1.44082000000E+09	-1.46264851025E+00	-2.80059457000E+01
1.48081500000E+09	-1.69940844734E+00	-2.99502616939E+01
1.52081000000E+09	-2.09738826536E+00	-2.91940127377E+01
1.56080500000E+09	-1.78019822598E+00	-2.78914881876E+01
1.60080000000E+09	-1.51381474913E+00	-3.03768060305E+01
1.64079500000E+09	-1.75439760835E+00	-3.40677136178E+01
1.68079000000E+09	-2.26934631477E+00	-3.26705904501E+01
1.72078500000E+09	-1.90862255311E+00	-3.16421497000E+01
1.76078000000E+09	-1.78661966803E+00	-3.37973620448E+01
1.80077500000E+09	-1.97966687214E+00	-3.57125905064E+01
1.84077000000E+09	-2.20224371293E+00	-3.30395733537E+01
1.88076500000E+09	-1.60974720197E+00	-3.30000500313E+01
1.92076000000E+09	-1.35974418678E+00	-3.59163610841E+01
1.96075500000E+09	-1.28914896205E+00	-3.78975855270E+01
2.00075000000E+09	-1.15387575394E+00	-4.05772922711E+01
2.04074500000E+09	-1.15779731736E+00	-4.36085571265E+01
2.08074000000E+09	-1.33921970645E+00	-4.64908836831E+01
2.12073500000E+09	-1.56831275972E+00	-4.88461812444E+01
2.16073000000E+09	-1.93632856996E+00	-5.10473504619E+01
2.20072500000E+09	-2.47989689997E+00	-5.06652516524E+01
2.24072000000E+09	-2.42594327467E+00	-4.87388189352E+01
2.28071500000E+09	-2.33713864433E+00	-4.96851237761E+01
2.32071000000E+09	-2.49292534973E+00	-5.09440862934E+01
2.36070500000E+09	-2.65530825220E+00	-4.96293320152E+01
2.40070000000E+09	-2.32422562606E+00	-4.92532510691E+01
2.44069500000E+09	-2.20797899454E+00	-5.15342856037E+01
2.48069000000E+09	-2.31368943234E+00	-5.30939916122E+01
2.52068500000E+09	-2.47079641221E+00	-5.28115437740E+01
2.56068000000E+09	-2.35975950024E+00	-5.21767680491E+01
2.60067500000E+09	-2.11171577626E+00	-5.31500896711E+01
2.64067000000E+09	-1.96954845005E+00	-5.52052905366E+01
2.68066500000E+09	-2.03466311051E+00	-5.69580860446E+01
2.72066000000E+09	-2.08125879802E+00	-5.76118844414E+01
2.76065500000E+09	-1.97537337236E+00	-5.82242832851E+01
2.80065000000E+09	-1.81971610640E+00	-5.99351736441E+01
2.84064500000E+09	-1.76528423576E+00	-6.20185880668E+01
2.88064000000E+09	-1.80671825502E+00	-6.38507852656E+01
2.92063500000E+09	-1.88866392115E+00	-6.50232566940E+01
2.96063000000E+09	-1.82426572907E+00	-6.60962418031E+01
3.00062500000E+09	-1.75608465875E+00	-6.77389363398E+01
3.04062000000E+09	-1.78593981976E+00	-6.97913429730E+01
3.08061500000E+09	-1.88783581901E+00	-7.15307529967E+01
3.12061000000E+09	-1.91901440610E+00	-7.25752947443E+01
3.16060500000E+09	-1.86159270186E+00	-7.37355394184E+01
3.20060000000E+09	-1.84528675551E+00	-7.55177424501E+01
3.24059500000E+09	-1.84643173360E+00	-7.73929511187E+01
3.28059000000E+09	-1.85658660463E+00	-7.92562268045E+01
3.32058500000E+09	-1.90234558156E+00	-8.10469476776E+01
3.36058000000E+09	-1.91743854271E+00	-8.25968987729E+01
3.40057500000E+09	-1.95614048406E+00	-8.45896239688E+01
3.44057000000E+09	-1.97756435724E+00	-8.66163216672E+01
3.48056500000E+09	-2.02188518005E+00	-8.86215767486E+01
3.52056000000E+09	-2.11620049862E+00	-9.07454878557E+01
3.56055500000E+09	-2.19377430000E+00	-9.27667910064E+01
3.60055000000E+09	-2.25543934046E+00	-9.47586292073E+01
3.64054500000E+09	-2.31087177081E+00	-9.69589442686E+01
3.68054000000E+09	-2.40782895888E+00	-9.91637009143E+01
3.72053500000E+09	-2.52291654084E+00	-1.01715014452E+02
3.76053000000E+09	-2.64841102923E+00	-1.04058391016E+02
3.80052500000E+09	-2.77369292894E+00	-1.06287585433E+02
3.84052000000E+09	-2.91885242965E+00	-1.08772408577E+02
3.88051500000E+09	-3.07761112421E+00	-1.11575946568E+02
3.92051000000E+09	-3.27127484594E+00	-1.14282270992E+02
3.96050500000E+09	-3.47308161505E+00	-1.16836873789E+02
4.00050000000E+09	-3.71828560026E+00	-1.19578072854E+02
4.04049500000E+09	-3.96598778225E+00	-1.22512475250E+02
4.08049000000E+09	-4.24824628622E+00	-1.25639141374E+02
4.12048500000E+09	-4.56424058184E+00	-1.28224252187E+02
4.16048000000E+09	-4.90858749441E+00	-1.31295632705E+02
4.20047500000E+09	-5.28220708894E+00	-1.34939012690E+02
4.24047000000E+09	-5.72143098968E+00	-1.38507019427E+02
4.28046500000E+09	-6.27939724651E+00	-1.41936177633E+02
4.32046000000E+09	-6.89837273943E+00	-1.45466359475E+02
4.36045500000E+09	-7.57895288091E+00	-1.49086330875E+02
4.40045000000E+09	-8.33260111320E+00	-1.52587693518E+02
4.44044500000E+09	-9.21492339939E+00	-1.55666088226E+02
4.48044000000E+09	-1.02873411075E+01	-1.59279066131E+02
4.52043500000E+09	-1.14370082437E+01	-1.62115035641E+02
4.56043000000E+09	-1.24720635604E+01	-1.65108599792E+02
4.60042500000E+09	-1.40874140507E+01	-1.68880190878E+02
4.64042000000E+09	-1.64640399637E+01	-1.72909256184E+02
4.68041500000E+09	-1.93352380518E+01	-1.72177193282E+02
4.72041000000E+09	-2.30003248178E+01	-1.67665021837E+02
4.76040500000E+09	-2.80691778921E+01	-1.48966709292E+02
4.80040000000E+09	-3.20938412713E+01	-9.28750346839E+01
4.84039500000E+09	-2.63429287907E+01	-4.76203227386E+01
4.88039000000E+09	-2.14689801370E+01	-4.03099693284E+01
4.92038500000E+09	-1.85256877989E+01	-4.37694391859E+01
4.96038000000E+09	-1.68217513456E+01	-4.43295078406E+01
5.00037500000E+09	-1.54603103589E+01	-4.53432949234E+01
5.04037000000E+09	-1.41867052903E+01	-4.86290156534E+01
5.08036500000E+09	-1.31546161228E+01	-5.16611389214E+01
5.12036000000E+09	-1.24706398017E+01	-5.47630157098E+01
5.16035500000E+09	-1.23068025692E+01	-5.86641209797E+01
5.20035000000E+09	-1.19095628125E+01	-5.95791270001E+01
5.24034500000E+09	-1.13487562150E+01	-6.10774381590E+01
5.28034000000E+09	-1.10181414824E+01	-6.40285353569E+01
5.32033500000E+09	-1.09849384636E+01	-6.67335551725E+01
5.36033000000E+09	-1.09099832423E+01	-6.80148321601E+01
5.40032500000E+09	-1.06106773229E+01	-6.76128275438E+01
5.44032000000E+09	-1.03763290710E+01	-6.91386695126E+01
5.48031500000E+09	-1.04054953226E+01	-7.25352137787E+01
5.52031000000E+09	-1.06874902042E+01	-7.32029955476E+01
5.56030500000E+09	-1.05215694436E+01	-7.05598950988E+01
5.60030000000E+09	-1.02401396445E+01	-7.08577251324E+01
5.64029500000E+09	-1.02715488318E+01	-7.26626422383E+01
5.68029000000E+09	-1.02972502011E+01	-7.15602777602E+01
5.72028500000E+09	-9.76336793004E+00	-6.93699981824E+01
5.76028000000E+09	-9.23663255113E+00	-6.98177322352E+01
5.80027500000E+09	-9.03075413003E+00	-7.23504637228E+01
5.84027000000E+09	-8.83858012403E+00	-7.34735303005E+01
5.88026500000E+09	-8.25428817354E+00	-7.40581708706E+01
5.92026000000E+09	-7.97120220221E+00	-7.62143113361E+01
5.96025500000E+09	-7.86599722926E+00	-7.92827111299E+01
6.00025000000E+09	-7.68440111567E+00	-8.23770848958E+01
6.04024500000E+09	-7.37860184073E+00	-8.51088456879E+01
6.08024000000E+09	-7.33232454087E+00	-8.87282131246E+01
6.12023500000E+09	-7.55141770080E+00	-9.38737157186E+01
6.16023000000E+09	-7.79221393407E+00	-9.84412922279E+01
6.20022500000E+09	-8.27597091620E+00	-1.02357400772E+02
6.24022000000E+09	-9.43142854835E+00	-1.05120524403E+02
6.28021500000E+09	-1.06954012321E+01	-1.01046795005E+02
6.32021000000E+09	-1.07661002998E+01	-9.49691842843E+01
6.36020500000E+09	-1.04335917314E+01	-9.25838656618E+01
6.40020000000E+09	-1.05042555929E+01	-9.00359872664E+01
6.44019500000E+09	-1.03125785619E+01	-8.68065140128E+01
6.48019000000E+09	-9.80013370150E+00	-8.75429224659E+01
6.52018500000E+09	-9.35573735828E+00	-8.88928522304E+01
6.56018000000E+09	-9.28966596209E+00	-8.97895664774E+01
6.60017500000E+09	-9.52032262733E+00	-8.94135696972E+01
6.64017000000E+09	-9.25472821499E+00	-9.00040170892E+01
6.68016500000E+09	-8.88377435330E+00	-9.10027901363E+01
6.72016000000E+09	-8.83269347528E+00	-9.21146699025E+01
6.76015500000E+09	-8.96426562173E+00	-9.32678161999E+01
6.80015000000E+09	-8.97150091465E+00	-9.43029715623E+01
6.84014500000E+09	-8.74679665285E+00	-9.49563223264E+01
6.88014000000E+09	-8.69154288876E+00	-9.57767689752E+01
6.92013500000E+09	-8.88806551825E+00	-9.74898272652E+01
6.96013000000E+09	-9.05941120884E+00	-9.88101513095E+01
7.00012500000E+09	-8.98415495195E+00	-9.85317061982E+01
7.04012000000E+09	-8.85835118664E+00	-9.85301256968E+01
7.08011500000E+09	-8.97177820617E+00	-9.94853342552E+01
7.12011000000E+09	-9.11528011901E+00	-1.00668551786E+02
7.16010500000E+09	-8.99220565860E+00	-1.00861815649E+02
7.20010000000E+09	-8.85016304522E+00	-1.01306056214E+02
7.24009500000E+09	-8.98019191373E+00	-1.02443965225E+02
7.28009000000E+09	-9.13016291240E+00	-1.04303088521E+02
7.32008500000E+09	-9.21027785506E+00	-1.04817980889E+02
7.36008000000E+09	-9.28748293374E+00	-1.04590263320E+02
7.40007500000E+09	-9.45116286695E+00	-1.04964273334E+02
7.44007000000E+09	-9.70870323073E+00	-1.05997345516E+02
7.48006500000E+09	-9.78105936697E+00	-1.05764267369E+02
7.52006000000E+09	-9.73167312175E+00	-1.04651669014E+02
7.56005500000E+09	-9.88984753787E+00	-1.03887696263E+02
7.60005000000E+09	-9.91002619577E+00	-1.04140939121E+02
7.64004500000E+09	-9.91030016178E+00	-1.05048114172E+02
7.68004000000E+09	-9.83738547898E+00	-1.03967569869E+02
7.72003500000E+09	-9.97628901330E+00	-1.03069310866E+02
7.76003000000E+09	-9.99735828343E+00	-1.03197365960E+02
7.80002500000E+09	-1.00058574242E+01	-1.03647392278E+02
7.84002000000E+09	-9.80419679074E+00	-1.02663734205E+02
7.88001500000E+09	-9.83796219459E+00	-1.01946133964E+02
7.92001000000E+09	-9.97388573843E+00	-1.01531582192E+02
7.96000500000E+09	-9.87558094749E+00	-1.02060425655E+02
8.00000000000E+09	-9.67778289130E+00	-1.01542245650E+02
