# Hz S DB R 50
! CMT, CMT804U, 21380002, 24.2.2/4
! Date: 09/12/2025 13:17:18
! Data: Format (Calibration Info)
! Freq	S11:dB/Ang(F2)	S21:dB/Ang(F2)	S12:dB/Ang(F2)	S22:dB/Ang(F2)
1.00000000000E+06	-3.72492033164E+01	-3.13343555426E+00	-5.88778407081E+00	-7.32284395166E-02	-5.85407281780E+00	-1.36275981181E-01	-3.98747793099E+01	-3.32291323662E+00
4.09950000000E+07	-3.77677999655E+01	2.56187495248E+00	-5.89094889449E+00	-1.28309722536E+00	-5.86215401034E+00	-1.41279072415E+00	-4.06856696690E+01	3.25515102229E+00
8.09900000000E+07	-3.79756358973E+01	7.74917700383E-01	-5.89681268572E+00	-2.52818824936E+00	-5.86782575235E+00	-2.69233850672E+00	-4.10425742472E+01	6.44631461435E-01
1.20985000000E+08	-3.76428471828E+01	-2.20347667152E+00	-5.89706099197E+00	-3.75630224262E+00	-5.86885684877E+00	-3.92593364160E+00	-4.06087354224E+01	-4.39218897012E+00
1.60980000000E+08	-3.73401937916E+01	1.90453072824E-01	-5.89907037303E+00	-5.01512059927E+00	-5.87243326231E+00	-5.16585312765E+00	-4.00477420336E+01	-2.22787757527E+00
2.00975000000E+08	-3.75700625887E+01	1.50381321231E+00	-5.90109644252E+00	-6.24803698089E+00	-5.87432489382E+00	-6.40160422888E+00	-4.01564025699E+01	5.77396938947E-01
2.40970000000E+08	-3.79901994465E+01	-1.75066906168E+00	-5.90238971626E+00	-7.47723330007E+00	-5.87681338256E+00	-7.63950602879E+00	-4.08342864639E+01	-2.44943056035E+00
2.80965000000E+08	-3.76180403630E+01	-4.27916850467E+00	-5.90612031656E+00	-8.72131031229E+00	-5.88055092579E+00	-8.88828287925E+00	-4.05959550690E+01	-8.04105127165E+00
3.20960000000E+08	-3.72136282224E+01	-2.26001403981E+00	-5.90741442277E+00	-9.93794744110E+00	-5.88385129140E+00	-1.01049170584E+01	-3.96986024886E+01	-7.53984054557E+00
3.60955000000E+08	-3.76235518391E+01	3.64444150975E-01	-5.90786641945E+00	-1.11728658720E+01	-5.88378610137E+00	-1.13317146376E+01	-3.96814576550E+01	-2.91162510159E+00
4.00950000000E+08	-3.80654083330E+01	-2.48222439971E+00	-5.91050689590E+00	-1.23926301673E+01	-5.88687994493E+00	-1.25626519678E+01	-4.04146814286E+01	-3.68683871557E+00
4.40945000000E+08	-3.77955396424E+01	-6.37268494039E+00	-5.91153795190E+00	-1.36246355769E+01	-5.88754238307E+00	-1.37902978990E+01	-4.04882453942E+01	-1.16842929105E+01
4.80940000000E+08	-3.74014610229E+01	-3.98980339628E+00	-5.91446302624E+00	-1.48616126909E+01	-5.89042251104E+00	-1.50252423976E+01	-3.94900933541E+01	-1.27245006090E+01
5.20935000000E+08	-3.77960176659E+01	-1.23302397659E+00	-5.91678041739E+00	-1.60567901446E+01	-5.89329124203E+00	-1.62450783836E+01	-3.90907363117E+01	-7.36827423967E+00
5.60930000000E+08	-3.86038687397E+01	-3.29416428336E+00	-5.91301942256E+00	-1.72929437010E+01	-5.89391270602E+00	-1.74797017872E+01	-4.00028681713E+01	-6.29572858950E+00
6.00925000000E+08	-3.83436294887E+01	-7.64871375347E+00	-5.91601804208E+00	-1.85322555862E+01	-5.89533216421E+00	-1.87146760744E+01	-4.03521873318E+01	-1.42121217329E+01
6.40920000000E+08	-3.79226904567E+01	-7.38204374714E+00	-5.91741551177E+00	-1.97248551601E+01	-5.89790929750E+00	-1.99459863556E+01	-3.92383736689E+01	-1.84076574897E+01
6.80915000000E+08	-3.84194462612E+01	-3.01883682535E+00	-5.91710027782E+00	-2.09398333784E+01	-5.89850156171E+00	-2.11765761460E+01	-3.87585328142E+01	-1.21179191114E+01
7.20910000000E+08	-3.91245878192E+01	-4.19169503671E+00	-5.91789857964E+00	-2.21584192999E+01	-5.90120432944E+00	-2.23934184476E+01	-3.94760682115E+01	-8.38170209839E+00
7.60905000000E+08	-3.91874771535E+01	-9.58515760203E+00	-5.91546609197E+00	-2.33612096013E+01	-5.90033404586E+00	-2.36090939734E+01	-4.02427336675E+01	-1.69639701933E+01
8.00900000000E+08	-3.88985331380E+01	-8.68734810373E+00	-5.91734053635E+00	-2.45933837173E+01	-5.90148642575E+00	-2.48680716759E+01	-3.91760438508E+01	-2.27877011096E+01
8.40895000000E+08	-3.92100933939E+01	-5.14416131557E+00	-5.92235124581E+00	-2.58032412330E+01	-5.90651464931E+00	-2.60747590980E+01	-3.82924546454E+01	-1.70313071505E+01
8.80890000000E+08	-4.01255670376E+01	-5.29639013153E+00	-5.91659384211E+00	-2.70061854324E+01	-5.90341817447E+00	-2.72774310511E+01	-3.91317440424E+01	-1.17005462608E+01
9.20885000000E+08	-4.02070680195E+01	-9.06617767180E+00	-5.91560572762E+00	-2.82581358349E+01	-5.90426416905E+00	-2.85332851407E+01	-4.01055324986E+01	-1.81724633635E+01
9.60880000000E+08	-4.00159240582E+01	-1.04035482600E+01	-5.92050055552E+00	-2.94770126405E+01	-5.90865436524E+00	-2.97465288151E+01	-3.90296412101E+01	-2.70667929519E+01
1.00087500000E+09	-4.05735042069E+01	-5.93899334279E+00	-5.91856089778E+00	-3.07043353473E+01	-5.90729064308E+00	-3.09597840569E+01	-3.81687235147E+01	-2.19208419141E+01
1.04087000000E+09	-4.11342749386E+01	-4.41402616858E+00	-5.92016587915E+00	-3.19383410894E+01	-5.91123947011E+00	-3.21815411300E+01	-3.85999708998E+01	-1.43190715784E+01
1.08086500000E+09	-4.15259485189E+01	-9.50366393842E+00	-5.91684822152E+00	-3.31563655200E+01	-5.90872526894E+00	-3.33643555753E+01	-3.98328597987E+01	-2.06151893934E+01
1.12086000000E+09	-4.15782056084E+01	-8.59791071437E+00	-5.91737576673E+00	-3.44565800874E+01	-5.90805005749E+00	-3.46271387939E+01	-3.91391907454E+01	-2.98353379163E+01
1.16085500000E+09	-4.16764758680E+01	-4.01046606345E+00	-5.92562395251E+00	-3.56854970634E+01	-5.91489991816E+00	-3.58737517694E+01	-3.78272565314E+01	-2.53602617185E+01
1.20085000000E+09	-4.27228453866E+01	-1.71033947335E+00	-5.92145015448E+00	-3.68827275916E+01	-5.91185642125E+00	-3.70770914983E+01	-3.82369006130E+01	-1.84353101608E+01
1.24084500000E+09	-4.33192327309E+01	-2.91911634873E+00	-5.91823018050E+00	-3.81765936351E+01	-5.91169425131E+00	-3.83380840468E+01	-3.95493723247E+01	-2.09085472815E+01
1.28084000000E+09	-4.32909699366E+01	-4.88867529300E+00	-5.92665482494E+00	-3.94245486486E+01	-5.91682378802E+00	-3.95524626916E+01	-3.89536620231E+01	-3.16835386485E+01
1.32083500000E+09	-4.37380121115E+01	2.43774988508E+00	-5.92152897162E+00	-4.06615870394E+01	-5.91384833483E+00	-4.07744183239E+01	-3.77673859424E+01	-2.93592407094E+01
1.36083000000E+09	-4.42675708367E+01	8.61587306029E+00	-5.92608955901E+00	-4.19400756674E+01	-5.91818149163E+00	-4.20213439092E+01	-3.78318522346E+01	-2.02995252317E+01
1.40082500000E+09	-4.55310327280E+01	6.73792385045E+00	-5.92804110006E+00	-4.31139185333E+01	-5.91909295327E+00	-4.31960288524E+01	-3.90917356667E+01	-2.29493074956E+01
1.44082000000E+09	-4.59815131500E+01	1.04746928839E+01	-5.92122229414E+00	-4.43678804990E+01	-5.91370029116E+00	-4.44486669360E+01	-3.90892679345E+01	-3.37913709963E+01
1.48081500000E+09	-4.55948697303E+01	1.57570613053E+01	-5.93100980831E+00	-4.56217746196E+01	-5.92283609971E+00	-4.57196176943E+01	-3.75475594658E+01	-3.15908511979E+01
1.52081000000E+09	-4.64954639755E+01	2.32469439647E+01	-5.93251592655E+00	-4.67982692618E+01	-5.92310351814E+00	-4.68837182216E+01	-3.74649967654E+01	-2.44678336567E+01
1.56080500000E+09	-4.70664821495E+01	3.16874823644E+01	-5.92696400519E+00	-4.80661439391E+01	-5.91867649371E+00	-4.81284310445E+01	-3.89072537488E+01	-2.34905430489E+01
1.60080000000E+09	-4.74573211809E+01	3.45334458383E+01	-5.93231504558E+00	-4.92907639219E+01	-5.92474155775E+00	-4.93297621616E+01	-3.88433140975E+01	-3.40730543985E+01
1.64079500000E+09	-4.75622117900E+01	4.34746388457E+01	-5.92803070674E+00	-5.04980492359E+01	-5.91962516496E+00	-5.05464790763E+01	-3.74994241061E+01	-3.55179656356E+01
1.68079000000E+09	-4.71439830732E+01	4.92582684799E+01	-5.93220710729E+00	-5.17574518637E+01	-5.92340326025E+00	-5.18307810431E+01	-3.72772104432E+01	-2.64823990059E+01
1.72078500000E+09	-4.74714820275E+01	5.64369567642E+01	-5.93732925595E+00	-5.29068326706E+01	-5.93091785960E+00	-5.29977667224E+01	-3.84125691931E+01	-2.54557258024E+01
1.76078000000E+09	-4.66275491517E+01	6.54627681927E+01	-5.92742027848E+00	-5.41152893143E+01	-5.91868590764E+00	-5.42113436665E+01	-3.89060983447E+01	-3.56121471625E+01
1.80077500000E+09	-4.61649242208E+01	6.82991013535E+01	-5.93455451936E+00	-5.53079171315E+01	-5.92648709033E+00	-5.54840374007E+01	-3.74320133630E+01	-3.69403714033E+01
1.84077000000E+09	-4.66832571280E+01	7.49933798177E+01	-5.93628253936E+00	-5.63133668907E+01	-5.93329817644E+00	-5.67368687627E+01	-3.71058990054E+01	-3.05671276849E+01
1.88076500000E+09	-4.53174001480E+01	7.83717563542E+01	-5.92707951895E+00	-5.75816885475E+01	-5.92283262079E+00	-5.78622422880E+01	-3.82544164740E+01	-2.67104000338E+01
1.92076000000E+09	-4.44360660259E+01	8.00492404315E+01	-5.93594278051E+00	-5.87998570160E+01	-5.93018994639E+00	-5.90610511341E+01	-3.86352549782E+01	-3.60419148949E+01
1.96075500000E+09	-4.39447636640E+01	8.67595378409E+01	-5.93029220672E+00	-5.99683344266E+01	-5.92820120145E+00	-6.02376220530E+01	-3.73755914739E+01	-3.99894295080E+01
2.00075000000E+09	-4.35722433054E+01	8.92234120956E+01	-5.93062237484E+00	-6.12680626894E+01	-5.92714561099E+00	-6.15089716514E+01	-3.68442995935E+01	-3.23403682671E+01
2.04074500000E+09	-4.31559697853E+01	8.91566746328E+01	-5.94610669537E+00	-6.24375294243E+01	-5.93732449284E+00	-6.26534694047E+01	-3.78189650952E+01	-2.86324885141E+01
2.08074000000E+09	-4.19833480029E+01	9.09642306970E+01	-5.92983466488E+00	-6.36066368889E+01	-5.92105216214E+00	-6.38239833516E+01	-3.85915178771E+01	-3.71282010331E+01
2.12073500000E+09	-4.15909262371E+01	9.35531490209E+01	-5.93592285476E+00	-6.49440847851E+01	-5.92725433206E+00	-6.51208233087E+01	-3.72764323032E+01	-4.15619091622E+01
2.16073000000E+09	-4.14167556580E+01	9.67235007398E+01	-5.94590364197E+00	-6.60562878024E+01	-5.93572439621E+00	-6.62129351888E+01	-3.65624216997E+01	-3.53995308887E+01
2.20072500000E+09	-4.07392202195E+01	9.45271452784E+01	-5.92666612959E+00	-6.73099397341E+01	-5.91232171501E+00	-6.74466186874E+01	-3.74935676703E+01	-3.05981231525E+01
2.24072000000E+09	-4.00600898748E+01	9.47256045908E+01	-5.94133190490E+00	-6.86468081075E+01	-5.92166233340E+00	-6.88021396389E+01	-3.83974781238E+01	-3.78511620188E+01
2.28071500000E+09	-3.95526106312E+01	9.80411306756E+01	-5.94755704445E+00	-6.97632388908E+01	-5.92371767389E+00	-6.99372726790E+01	-3.71954768838E+01	-4.43365188871E+01
2.32071000000E+09	-3.93409348943E+01	9.81933857555E+01	-5.93192148700E+00	-7.10285500213E+01	-5.90764708268E+00	-7.12382163713E+01	-3.62905106147E+01	-3.85749820127E+01
2.36070500000E+09	-3.89725755494E+01	9.68343564651E+01	-5.94919421917E+00	-7.22968032191E+01	-5.91910913212E+00	-7.25051891193E+01	-3.70131319331E+01	-3.24949073552E+01
2.40070000000E+09	-3.82452675515E+01	9.73295369089E+01	-5.94234073605E+00	-7.34144879961E+01	-5.91276669184E+00	-7.36714991873E+01	-3.81806000179E+01	-3.87332934717E+01
2.44069500000E+09	-3.78688414999E+01	9.83524548599E+01	-5.94120942394E+00	-7.47339114970E+01	-5.91316478549E+00	-7.49927361642E+01	-3.71993275790E+01	-4.62460930140E+01
2.48069000000E+09	-3.77749715206E+01	9.85084802374E+01	-5.95578065695E+00	-7.58666727239E+01	-5.92191551651E+00	-7.61379132005E+01	-3.59800407668E+01	-4.15062437027E+01
2.52068500000E+09	-3.73883921224E+01	9.70587952810E+01	-5.93891214836E+00	-7.70133507498E+01	-5.92347038171E+00	-7.72103984069E+01	-3.66123619201E+01	-3.50195524595E+01
2.56068000000E+09	-3.68342778519E+01	9.65750895989E+01	-5.95772507598E+00	-7.84286245424E+01	-5.93819979709E+00	-7.85592865348E+01	-3.79844764452E+01	-3.91492086057E+01
2.60067500000E+09	-3.64604530604E+01	9.85855810462E+01	-5.97119717763E+00	-7.94644276858E+01	-5.94615963626E+00	-7.96194544914E+01	-3.71913953112E+01	-4.80895064393E+01
2.64067000000E+09	-3.64379423344E+01	9.76905913248E+01	-5.94024257262E+00	-8.07243459701E+01	-5.92284186129E+00	-8.09140828663E+01	-3.58639926725E+01	-4.52426082523E+01
2.68066500000E+09	-3.60959770033E+01	9.56861075913E+01	-5.95840896678E+00	-8.20803680004E+01	-5.94479978046E+00	-8.22184485910E+01	-3.62346546132E+01	-3.72364670042E+01
2.72066000000E+09	-3.54866990064E+01	9.61385287164E+01	-5.96100274787E+00	-8.31742162927E+01	-5.93941302776E+00	-8.32862661221E+01	-3.75973265547E+01	-3.95281552554E+01
2.76065500000E+09	-3.52166040310E+01	9.74243746251E+01	-5.95077898653E+00	-8.44725649389E+01	-5.93008563917E+00	-8.46154433723E+01	-3.71361830993E+01	-5.00456815403E+01
2.80065000000E+09	-3.53420779967E+01	9.72262473720E+01	-5.96973703187E+00	-8.56771849667E+01	-5.94952515682E+00	-8.58574904239E+01	-3.56658737803E+01	-4.82256846167E+01
2.84064500000E+09	-3.49438922892E+01	9.51016340249E+01	-5.94902049700E+00	-8.68333432283E+01	-5.92973828527E+00	-8.69815791197E+01	-3.58345014112E+01	-4.01150864907E+01
2.88064000000E+09	-3.44343114745E+01	9.49200202418E+01	-5.95347118312E+00	-8.81955590791E+01	-5.93049400778E+00	-8.83555542113E+01	-3.73449262626E+01	-4.08812891248E+01
2.92063500000E+09	-3.42708897887E+01	9.66604483742E+01	-5.97215270488E+00	-8.92503732793E+01	-5.94161473322E+00	-8.95167712633E+01	-3.71284279574E+01	-5.19024055890E+01
2.96063000000E+09	-3.44226189670E+01	9.53582194071E+01	-5.95508921940E+00	-9.04173955113E+01	-5.92542380523E+00	-9.07088856733E+01	-3.54700008219E+01	-5.21614758716E+01
3.00062500000E+09	-3.41157088061E+01	9.27639028951E+01	-5.95902805687E+00	-9.16638104948E+01	-5.94152459354E+00	-9.19589211836E+01	-3.54966448562E+01	-4.27379847875E+01
3.04062000000E+09	-3.34866744307E+01	9.24673808409E+01	-5.95088087574E+00	-9.28161587769E+01	-5.92553260836E+00	-9.31246108960E+01	-3.69704692640E+01	-4.15022916684E+01
3.08061500000E+09	-3.33596168294E+01	9.42826954385E+01	-5.95662602301E+00	-9.42930756685E+01	-5.92451065883E+00	-9.45374874011E+01	-3.71952462057E+01	-5.50886102934E+01
3.12061000000E+09	-3.35479865508E+01	9.37341650538E+01	-5.98609554982E+00	-9.53928658471E+01	-5.95608018285E+00	-9.56678291012E+01	-3.54457408391E+01	-5.64572603970E+01
3.16060500000E+09	-3.32535512701E+01	9.03432588035E+01	-5.94343399453E+00	-9.64447868140E+01	-5.92311815206E+00	-9.67533666245E+01	-3.49140962790E+01	-4.72827089614E+01
3.20060000000E+09	-3.26566591192E+01	9.06198562326E+01	-5.94365283035E+00	-9.79745993747E+01	-5.92011696749E+00	-9.81818910410E+01	-3.65806798627E+01	-4.38312965922E+01
3.24059500000E+09	-3.25513199836E+01	9.28931931625E+01	-5.98584067223E+00	-9.90787048609E+01	-5.94901851099E+00	-9.93372390787E+01	-3.71365952896E+01	-5.64972339041E+01
3.28059000000E+09	-3.28237048768E+01	9.16227368830E+01	-5.96241921198E+00	-1.00148187788E+02	-5.93536347034E+00	-1.00585385004E+02	-3.52733632708E+01	-6.05821844750E+01
3.32058500000E+09	-3.25875437052E+01	8.84629352628E+01	-5.96379028415E+00	-1.01501869608E+02	-5.94430765029E+00	-1.01864811707E+02	-3.47093486519E+01	-5.14461021846E+01
3.36058000000E+09	-3.19854026663E+01	8.79217645248E+01	-5.96294011047E+00	-1.02627475814E+02	-5.93140429641E+00	-1.02909679324E+02	-3.60154320806E+01	-4.59505576803E+01
3.40057500000E+09	-3.18826689358E+01	9.03599737684E+01	-5.96153546924E+00	-1.03926269315E+02	-5.93431418498E+00	-1.04308193126E+02	-3.71549286235E+01	-5.88185629698E+01
3.44057000000E+09	-3.21823605025E+01	9.04514114585E+01	-5.99473357116E+00	-1.04997014388E+02	-5.97472693046E+00	-1.05399987472E+02	-3.53412215181E+01	-6.54915128720E+01
3.48056500000E+09	-3.20549988753E+01	8.59744330697E+01	-5.95881724657E+00	-1.06058275339E+02	-5.93624514957E+00	-1.06534810499E+02	-3.42297105944E+01	-5.60413983952E+01
3.52056000000E+09	-3.13970437202E+01	8.53195853684E+01	-5.95645261980E+00	-1.07604546082E+02	-5.93766961226E+00	-1.08135941021E+02	-3.56390616312E+01	-4.94270484687E+01
3.56055500000E+09	-3.12265368267E+01	8.82702477450E+01	-5.98983190955E+00	-1.08748528381E+02	-5.97254759858E+00	-1.09227655656E+02	-3.69589592196E+01	-6.12787750463E+01
3.60055000000E+09	-3.15788311995E+01	8.75301083479E+01	-5.96382280675E+00	-1.09947752900E+02	-5.94269912614E+00	-1.10458855820E+02	-3.50631628407E+01	-6.97577650206E+01
3.64054500000E+09	-3.14747863234E+01	8.39553466224E+01	-5.98645571301E+00	-1.11248999396E+02	-5.97053226440E+00	-1.11815125182E+02	-3.39973197569E+01	-6.12788635563E+01
3.68054000000E+09	-3.08214052197E+01	8.33830022236E+01	-5.97653926963E+00	-1.12173945185E+02	-5.96285991126E+00	-1.12761387586E+02	-3.50456705410E+01	-5.26070823340E+01
3.72053500000E+09	-3.07018821998E+01	8.63162092547E+01	-5.94717757273E+00	-1.13645713271E+02	-5.94027088460E+00	-1.14250819206E+02	-3.67835018319E+01	-6.30551034074E+01
3.76053000000E+09	-3.11619048945E+01	8.65252444322E+01	-6.00499895177E+00	-1.14855218002E+02	-5.99794019572E+00	-1.15459035144E+02	-3.51847122427E+01	-7.44079582529E+01
3.80052500000E+09	-3.10642188307E+01	8.20727877976E+01	-5.97562402698E+00	-1.15744902112E+02	-5.96732662374E+00	-1.16418728889E+02	-3.37158600160E+01	-6.60165308043E+01
3.84052000000E+09	-3.04639606181E+01	8.12456041911E+01	-5.95072753508E+00	-1.17308469372E+02	-5.95383555550E+00	-1.17950066445E+02	-3.46698647501E+01	-5.77848671030E+01
3.88051500000E+09	-3.03173642935E+01	8.43093805547E+01	-5.98743533273E+00	-1.18430581601E+02	-5.99375188044E+00	-1.19008684222E+02	-3.64808246768E+01	-6.53505866055E+01
3.92051000000E+09	-3.07560950752E+01	8.43018720297E+01	-5.95783194860E+00	-1.19600002696E+02	-5.95613520369E+00	-1.20175993441E+02	-3.50061814154E+01	-7.80364883157E+01
3.96050500000E+09	-3.07675699323E+01	8.01823007132E+01	-5.98163916732E+00	-1.21005542288E+02	-5.99161370795E+00	-1.21659745482E+02	-3.35392012455E+01	-7.16096091498E+01
4.00050000000E+09	-3.01244598667E+01	7.88887276973E+01	-5.97853439952E+00	-1.21903433988E+02	-5.99757161091E+00	-1.22505508562E+02	-3.42648770338E+01	-6.15293206520E+01
4.04049500000E+09	-3.00429463935E+01	8.22600861687E+01	-5.92895134598E+00	-1.23282240793E+02	-5.94429142904E+00	-1.23880398357E+02	-3.60900292638E+01	-6.87096098031E+01
4.08049000000E+09	-3.05264374884E+01	8.23685515877E+01	-5.98566663471E+00	-1.24713776358E+02	-6.00872142106E+00	-1.25305168221E+02	-3.50255451980E+01	-8.17820763408E+01
4.12048500000E+09	-3.05090574852E+01	7.75923370023E+01	-5.97831423607E+00	-1.25512801743E+02	-6.00456173978E+00	-1.26079798203E+02	-3.33691616253E+01	-7.59937388002E+01
4.16048000000E+09	-2.99359927188E+01	7.61393195096E+01	-5.93980429661E+00	-1.26983423937E+02	-5.96088995569E+00	-1.27558835622E+02	-3.39001923832E+01	-6.73497980163E+01
4.20047500000E+09	-2.97515433042E+01	7.92789924232E+01	-5.97196671082E+00	-1.28253920049E+02	-6.00207809069E+00	-1.28815986665E+02	-3.56150467245E+01	-7.16434776835E+01
4.24047000000E+09	-3.01387373109E+01	7.92668355043E+01	-5.95081687003E+00	-1.29403836064E+02	-5.97134786005E+00	-1.29931875855E+02	-3.47100618853E+01	-8.43888231616E+01
4.28046500000E+09	-3.01550463412E+01	7.47339913066E+01	-5.96572738326E+00	-1.30832806408E+02	-5.99485339441E+00	-1.31441763484E+02	-3.32431348336E+01	-8.06284680116E+01
4.32046000000E+09	-2.95584582564E+01	7.40616096170E+01	-5.98495026075E+00	-1.31724311464E+02	-6.01620974864E+00	-1.32330840983E+02	-3.36238396064E+01	-7.13650706405E+01
4.36045500000E+09	-2.94065391645E+01	7.75114228321E+01	-5.93234351026E+00	-1.32999689594E+02	-5.95760600591E+00	-1.33639102040E+02	-3.51216128835E+01	-7.54944022496E+01
4.40045000000E+09	-2.99548360918E+01	7.76502947750E+01	-5.97072392576E+00	-1.34457047504E+02	-6.00192755662E+00	-1.35197884203E+02	-3.46246126948E+01	-8.72221478975E+01
4.44044500000E+09	-2.99533268769E+01	7.27891828766E+01	-5.98621861857E+00	-1.35334775232E+02	-6.01146434047E+00	-1.36150608541E+02	-3.31975121669E+01	-8.40419897357E+01
4.48044000000E+09	-2.92877612695E+01	7.20788308482E+01	-5.94155058357E+00	-1.36727136551E+02	-5.96427663631E+00	-1.37539850071E+02	-3.34441078184E+01	-7.67327679385E+01
4.52043500000E+09	-2.92450761871E+01	7.59555720471E+01	-5.97681113119E+00	-1.38089098338E+02	-6.00642000233E+00	-1.38790152861E+02	-3.47765199405E+01	-7.93894852596E+01
4.56043000000E+09	-2.98450893605E+01	7.60417817997E+01	-5.97201141497E+00	-1.39051129458E+02	-5.98274447249E+00	-1.39674392538E+02	-3.44035578496E+01	-8.96254819117E+01
4.60042500000E+09	-2.99076628595E+01	7.14755280169E+01	-5.96130799744E+00	-1.40344200043E+02	-5.98107420632E+00	-1.41033384987E+02	-3.32250792300E+01	-8.85839260963E+01
4.64042000000E+09	-2.93155490748E+01	7.04343995031E+01	-5.98792896135E+00	-1.41512884399E+02	-6.01967747536E+00	-1.42038932236E+02	-3.32132804792E+01	-8.11216157198E+01
4.68041500000E+09	-2.91811693843E+01	7.34453191818E+01	-5.96908474617E+00	-1.42696952383E+02	-5.97464751297E+00	-1.43086284710E+02	-3.43857695208E+01	-8.34586699059E+01
4.72041000000E+09	-2.97172703084E+01	7.41033415783E+01	-5.97654447950E+00	-1.44098389863E+02	-5.98701762861E+00	-1.44590831068E+02	-3.42176226108E+01	-9.30817048005E+01
4.76040500000E+09	-2.98280673039E+01	6.93268165550E+01	-5.98357572936E+00	-1.45340577535E+02	-6.01018759121E+00	-1.45633132741E+02	-3.28919246805E+01	-9.11248611290E+01
4.80040000000E+09	-2.90994535151E+01	6.81656143531E+01	-5.98116218504E+00	-1.46693322807E+02	-5.97992908202E+00	-1.46945225022E+02	-3.31413210489E+01	-8.44359137835E+01
4.84039500000E+09	-2.89943260835E+01	7.23895134263E+01	-6.00038426066E+00	-1.47881554380E+02	-5.99967013956E+00	-1.48232014553E+02	-3.43509232373E+01	-8.69629496640E+01
4.88039000000E+09	-2.97642582709E+01	7.29227042399E+01	-5.97820419210E+00	-1.48988984600E+02	-5.98597829039E+00	-1.49304305480E+02	-3.39185393038E+01	-9.61241108631E+01
4.92038500000E+09	-2.99308969420E+01	6.69281602309E+01	-5.97526002665E+00	-1.50425781103E+02	-5.98263681755E+00	-1.50751382142E+02	-3.28768018792E+01	-9.38228944852E+01
4.96038000000E+09	-2.90873030084E+01	6.55867988546E+01	-6.00979549755E+00	-1.51580160762E+02	-6.01484330522E+00	-1.51859313579E+02	-3.31661234324E+01	-8.76799646062E+01
5.00037500000E+09	-2.88939714651E+01	6.99691366295E+01	-5.99126801537E+00	-1.52701831432E+02	-5.97886973462E+00	-1.52962874621E+02	-3.41705821870E+01	-9.11509753287E+01
5.04037000000E+09	-2.97099883288E+01	7.09729319294E+01	-5.98481937615E+00	-1.54024441049E+02	-5.98701117177E+00	-1.54348135396E+02	-3.37554812845E+01	-9.83613388973E+01
5.08036500000E+09	-2.99080611176E+01	6.46920764505E+01	-5.99303448101E+00	-1.55255374830E+02	-6.00591444955E+00	-1.55452621825E+02	-3.28160784832E+01	-9.56907242003E+01
5.12036000000E+09	-2.89679758991E+01	6.29258398604E+01	-5.99946181398E+00	-1.56513567643E+02	-5.98090685563E+00	-1.56732369510E+02	-3.32708400587E+01	-9.11119565431E+01
5.16035500000E+09	-2.87214406082E+01	6.83101412087E+01	-6.00967427523E+00	-1.57612133841E+02	-6.00183022404E+00	-1.58044250320E+02	-3.41886356566E+01	-9.49485989629E+01
5.20035000000E+09	-2.95866075671E+01	7.05152387297E+01	-5.99028855001E+00	-1.58777490097E+02	-5.99568841454E+00	-1.59086591611E+02	-3.34909827944E+01	-1.01143801481E+02
5.24034500000E+09	-3.00251734949E+01	6.36055737235E+01	-5.98965035348E+00	-1.60159291668E+02	-5.98212133499E+00	-1.60493136085E+02	-3.27536616964E+01	-9.69004702947E+01
5.28034000000E+09	-2.90718163325E+01	6.10427737865E+01	-6.01252795688E+00	-1.61338325803E+02	-6.00778370306E+00	-1.61706113619E+02	-3.34972949431E+01	-9.15019160245E+01
5.32033500000E+09	-2.86696275360E+01	6.59231880818E+01	-6.00251714890E+00	-1.62445730562E+02	-5.98841883537E+00	-1.62853524837E+02	-3.46713467732E+01	-9.77709990225E+01
5.36033000000E+09	-2.95245291455E+01	6.82960446722E+01	-6.00199251591E+00	-1.63622017928E+02	-5.99806220470E+00	-1.64182048014E+02	-3.37579774119E+01	-1.05106760968E+02
5.40032500000E+09	-2.99159783341E+01	6.24467962110E+01	-5.99728240699E+00	-1.64785426890E+02	-6.00564581184E+00	-1.65260931911E+02	-3.27419528992E+01	-1.00878289540E+02
5.44032000000E+09	-2.89692105110E+01	5.98533536113E+01	-5.99689988993E+00	-1.66115775283E+02	-5.97850243076E+00	-1.66640681128E+02	-3.35012144520E+01	-9.49712191055E+01
5.48031500000E+09	-2.86233697790E+01	6.52198139854E+01	-6.01369790500E+00	-1.67269702220E+02	-6.01262615947E+00	-1.67925790435E+02	-3.47148149118E+01	-9.98175862426E+01
5.52031000000E+09	-2.95524292729E+01	6.79889003777E+01	-5.98952179434E+00	-1.68370248198E+02	-6.00328375009E+00	-1.68825588754E+02	-3.37970683498E+01	-1.07643980542E+02
5.56030500000E+09	-3.01193252642E+01	6.12367843612E+01	-5.98889264468E+00	-1.69787886350E+02	-5.97052934226E+00	-1.70235741167E+02	-3.29183930995E+01	-1.03072195196E+02
5.60030000000E+09	-2.91214412798E+01	5.81345938965E+01	-6.00798095802E+00	-1.71022259966E+02	-6.00505745815E+00	-1.71594069193E+02	-3.35804203444E+01	-9.69956038238E+01
5.64029500000E+09	-2.86250056034E+01	6.30213091829E+01	-5.99016245167E+00	-1.72308409259E+02	-6.00130536138E+00	-1.72600278777E+02	-3.48098659852E+01	-1.02140046509E+02
5.68029000000E+09	-2.96587275071E+01	6.60162413525E+01	-6.00953309488E+00	-1.73673031505E+02	-5.98895087481E+00	-1.73854148536E+02	-3.38646177248E+01	-1.08960695636E+02
5.72028500000E+09	-3.02175043389E+01	5.87968616571E+01	-6.00916201328E+00	-1.74759881985E+02	-5.99873002985E+00	-1.74946119449E+02	-3.29451085529E+01	-1.03565915486E+02
5.76028000000E+09	-2.90560782488E+01	5.47324215190E+01	-5.97840204043E+00	-1.76049565391E+02	-5.97462947986E+00	-1.76384823923E+02	-3.40199643012E+01	-9.61887384051E+01
5.80027500000E+09	-2.85406294709E+01	6.09885435883E+01	-6.01017794998E+00	-1.77354865356E+02	-6.01604088404E+00	-1.77783803470E+02	-3.53673825238E+01	-1.02459630268E+02
5.84027000000E+09	-2.94587010282E+01	6.44223110992E+01	-6.01636641688E+00	-1.78328145720E+02	-6.01496399774E+00	-1.78557502049E+02	-3.42464762942E+01	-1.10697122990E+02
5.88026500000E+09	-3.01632227893E+01	5.66160251569E+01	-5.98038220425E+00	-1.79671609515E+02	-5.95795767924E+00	-1.79944647627E+02	-3.33580965722E+01	-1.03738818301E+02
5.92026000000E+09	-2.90112126266E+01	5.31499487340E+01	-6.00708385450E+00	1.78956745815E+02	-6.01625858916E+00	1.78562740618E+02	-3.43840163092E+01	-9.59105062298E+01
5.96025500000E+09	-2.83190608614E+01	5.90138089261E+01	-6.00504461438E+00	1.77864016515E+02	-6.02401345859E+00	1.77713659461E+02	-3.61106343518E+01	-1.03007501431E+02
6.00025000000E+09	-2.93325433935E+01	6.31348508867E+01	-6.00593721076E+00	1.76606511175E+02	-5.97837740078E+00	1.76418051361E+02	-3.48443743163E+01	-1.11896145054E+02
6.04024500000E+09	-3.01062060369E+01	5.64329448866E+01	-6.01776573141E+00	1.75509612654E+02	-6.00689134684E+00	1.75072908794E+02	-3.36699508807E+01	-1.05615891739E+02
6.08024000000E+09	-2.89988075639E+01	5.13229841542E+01	-5.98177585952E+00	1.74203829326E+02	-6.00411642425E+00	1.74012010006E+02	-3.48302129706E+01	-9.56619525817E+01
6.12023500000E+09	-2.84328112797E+01	5.71544424438E+01	-6.00543287720E+00	1.72711128956E+02	-6.00480498878E+00	1.72667737914E+02	-3.65756813318E+01	-1.01291828996E+02
6.16023000000E+09	-2.92855754534E+01	6.09306105944E+01	-6.03592155836E+00	1.71796150474E+02	-6.02358487959E+00	1.71646815457E+02	-3.54943986059E+01	-1.12545503236E+02
6.20022500000E+09	-3.00506679094E+01	5.32886561890E+01	-5.98420184156E+00	1.70657766880E+02	-5.98370062836E+00	1.70402098245E+02	-3.43462521207E+01	-1.04643662438E+02
6.24022000000E+09	-2.89726268478E+01	4.90595492625E+01	-5.99775120162E+00	1.69111397509E+02	-6.01920631129E+00	1.68883378507E+02	-3.52572854077E+01	-9.48862141776E+01
6.28021500000E+09	-2.81893375391E+01	5.43808469680E+01	-6.02446348455E+00	1.68051042841E+02	-6.03266297506E+00	1.67979106740E+02	-3.74176663302E+01	-9.98681714650E+01
6.32021000000E+09	-2.91457223512E+01	5.84439640610E+01	-6.00324222360E+00	1.66810489545E+02	-5.98758597300E+00	1.66646741219E+02	-3.62382270180E+01	-1.10005729275E+02
6.36020500000E+09	-2.99927577200E+01	5.17671856831E+01	-6.01890800483E+00	1.65529631899E+02	-6.03576545472E+00	1.65324637150E+02	-3.49443134954E+01	-1.03142405350E+02
6.40020000000E+09	-2.87751786160E+01	4.57958286570E+01	-6.00509091930E+00	1.64377806681E+02	-6.02626012006E+00	1.64450959601E+02	-3.61473800648E+01	-9.11371210764E+01
6.44019500000E+09	-2.80492734066E+01	5.14706461731E+01	-6.00559449354E+00	1.62984660789E+02	-5.98282409307E+00	1.62906702272E+02	-3.81762619295E+01	-9.69788838826E+01
6.48019000000E+09	-2.88708779609E+01	5.70540921019E+01	-6.03669727332E+00	1.61964450967E+02	-6.03902673063E+00	1.61594221350E+02	-3.70515656475E+01	-1.09790419213E+02
6.52018500000E+09	-2.98706993028E+01	4.94256941051E+01	-5.99338597576E+00	1.60854586382E+02	-6.01613485009E+00	1.60693733789E+02	-3.56797603352E+01	-9.96834421186E+01
6.56018000000E+09	-2.87706918221E+01	4.32879852304E+01	-6.00485194200E+00	1.59284581209E+02	-5.98860571897E+00	1.59180558917E+02	-3.66515353793E+01	-8.71313447841E+01
6.60017500000E+09	-2.78168797287E+01	4.86598443796E+01	-6.03926469463E+00	1.58268082927E+02	-6.02945826210E+00	1.57950432846E+02	-3.95041844568E+01	-9.18671973493E+01
6.64017000000E+09	-2.87900591393E+01	5.40698576711E+01	-5.99429514289E+00	1.57111377588E+02	-6.01030618730E+00	1.56885725433E+02	-3.80254793593E+01	-1.05318967848E+02
6.68016500000E+09	-2.98358830320E+01	4.73113817283E+01	-6.01598676850E+00	1.55686493713E+02	-6.02324127491E+00	1.55552027964E+02	-3.62361017068E+01	-9.65402326675E+01
6.72016000000E+09	-2.86316683606E+01	3.95778230551E+01	-6.02434648417E+00	1.54736331932E+02	-6.01254546219E+00	1.54500308891E+02	-3.75052822953E+01	-7.96142100927E+01
6.76015500000E+09	-2.77819822753E+01	4.48248172920E+01	-5.99618403314E+00	1.53393129808E+02	-5.98543273678E+00	1.52953527025E+02	-4.02599807804E+01	-8.40674036381E+01
6.80015000000E+09	-2.85125120318E+01	5.10527029951E+01	-6.02654379597E+00	1.52074180314E+02	-6.05086084627E+00	1.51733624497E+02	-3.92247064198E+01	-1.02791620068E+02
6.84014500000E+09	-2.96531854956E+01	4.37611935242E+01	-6.01691680873E+00	1.51007667705E+02	-6.02033260066E+00	1.51043962511E+02	-3.69526265430E+01	-9.01552542694E+01
6.88014000000E+09	-2.86248835021E+01	3.61029368509E+01	-6.00942660089E+00	1.49535650391E+02	-5.96481252951E+00	1.49387506990E+02	-3.76488872797E+01	-7.21243619985E+01
6.92013500000E+09	-2.75212943966E+01	4.08995110805E+01	-6.04056505113E+00	1.48424549613E+02	-6.04199479665E+00	1.47897110033E+02	-4.16123533243E+01	-7.13147728638E+01
6.96013000000E+09	-2.83428730189E+01	4.66698228285E+01	-5.99626391453E+00	1.47299758629E+02	-6.03942674667E+00	1.47168223043E+02	-4.02739108755E+01	-9.44255190748E+01
7.00012500000E+09	-2.95376071662E+01	4.10367276369E+01	-6.01717892124E+00	1.45723362157E+02	-5.98850952713E+00	1.45807058951E+02	-3.73445930552E+01	-8.51700818434E+01
7.04012000000E+09	-2.84417026211E+01	3.14857601441E+01	-6.05613853379E+00	1.44760032923E+02	-6.01985039917E+00	1.44420649374E+02	-3.78956137667E+01	-6.17872852922E+01
7.08011500000E+09	-2.75012827371E+01	3.57527623581E+01	-5.99772475083E+00	1.43550220226E+02	-6.03064294302E+00	1.43328594169E+02	-4.13176850117E+01	-5.87804363950E+01
7.12011000000E+09	-2.80872826369E+01	4.26844038539E+01	-6.02192369897E+00	1.41990158758E+02	-6.02620385337E+00	1.42115037024E+02	-4.09564705994E+01	-8.73405275301E+01
7.16010500000E+09	-2.92112899913E+01	3.62131024197E+01	-6.05258312170E+00	1.41042230839E+02	-6.00945735021E+00	1.40964601458E+02	-3.74164884331E+01	-7.60137871841E+01
7.20010000000E+09	-2.84464520263E+01	2.72409639914E+01	-6.01588431593E+00	1.39756408570E+02	-5.99723028943E+00	1.39513059316E+02	-3.72798220479E+01	-5.44577166898E+01
7.24009500000E+09	-2.72921840728E+01	3.13760864459E+01	-6.04301963607E+00	1.38396144949E+02	-6.05624776789E+00	1.38245819728E+02	-4.08484957831E+01	-4.36821723191E+01
7.28009000000E+09	-2.79332841190E+01	3.73164060138E+01	-6.04292673098E+00	1.37401686893E+02	-6.03928861596E+00	1.37421883920E+02	-4.09423984123E+01	-7.35249141714E+01
7.32008500000E+09	-2.91606941804E+01	3.20995504855E+01	-6.03369768419E+00	1.36087628204E+02	-5.98583118373E+00	1.35961833398E+02	-3.72271538674E+01	-6.96965405445E+01
7.36008000000E+09	-2.81839002842E+01	2.20149822254E+01	-6.05785359956E+00	1.34891205055E+02	-6.04041835828E+00	1.34452091744E+02	-3.66691902253E+01	-4.48718821546E+01
7.40007500000E+09	-2.71767991328E+01	2.56320940448E+01	-6.03511568568E+00	1.33738595762E+02	-6.05710648432E+00	1.33579765613E+02	-3.95960227326E+01	-3.47599856519E+01
7.44007000000E+09	-2.77090743507E+01	3.32652403284E+01	-6.03425530692E+00	1.32289705170E+02	-5.99263639681E+00	1.32237753274E+02	-4.13296766303E+01	-6.43297024927E+01
7.48006500000E+09	-2.90025609877E+01	2.65668142352E+01	-6.06916669001E+00	1.31184263377E+02	-6.02497458933E+00	1.30683757974E+02	-3.69313094158E+01	-6.10499868572E+01
7.52006000000E+09	-2.82889839115E+01	1.53077800458E+01	-6.04471024869E+00	1.29999448592E+02	-6.06961671146E+00	1.29818867899E+02	-3.58207142364E+01	-4.02250248240E+01
7.56005500000E+09	-2.68984498327E+01	1.96846863802E+01	-6.06098388436E+00	1.28572142015E+02	-6.02847934971E+00	1.28780539742E+02	-3.88974769743E+01	-2.67547595576E+01
7.60005000000E+09	-2.73344806471E+01	2.68041631236E+01	-6.08749711462E+00	1.27533125652E+02	-6.02490152971E+00	1.27289229173E+02	-4.03943069203E+01	-5.50840321775E+01
7.64004500000E+09	-2.89875128980E+01	2.27964551139E+01	-6.05590725623E+00	1.26368190475E+02	-6.04387592734E+00	1.26102544680E+02	-3.61356770319E+01	-5.79092173077E+01
7.68004000000E+09	-2.82558187995E+01	9.81175224150E+00	-6.06778056928E+00	1.24855005748E+02	-6.03826528567E+00	1.24927013489E+02	-3.49333988065E+01	-3.50744089914E+01
7.72003500000E+09	-2.67728292061E+01	1.18093935362E+01	-6.10237615838E+00	1.23758732483E+02	-6.05059412954E+00	1.23806366736E+02	-3.77826057889E+01	-2.16717098451E+01
7.76003000000E+09	-2.70288762577E+01	2.09927941974E+01	-6.07515049731E+00	1.22701060127E+02	-6.02343487068E+00	1.22671186360E+02	-4.05006762295E+01	-5.20781103057E+01
7.80002500000E+09	-2.86550012047E+01	1.78906154444E+01	-6.06206499649E+00	1.21304141019E+02	-6.02967099240E+00	1.21225216549E+02	-3.54236830605E+01	-5.59059787739E+01
7.84002000000E+09	-2.84739971697E+01	3.47428348840E+00	-6.08412335320E+00	1.19988940037E+02	-6.06047248171E+00	1.20339599709E+02	-3.39034085446E+01	-3.53335631855E+01
7.88001500000E+09	-2.66412355095E+01	4.60488247503E+00	-6.10490548665E+00	1.18844317481E+02	-6.00401563141E+00	1.19153447779E+02	-3.67698015316E+01	-1.70365563064E+01
7.92001000000E+09	-2.65955708947E+01	1.28299444944E+01	-6.10015810061E+00	1.17826192207E+02	-6.03379420239E+00	1.17546169370E+02	-3.98874105094E+01	-4.67300947753E+01
7.96000500000E+09	-2.83799072769E+01	1.33706921629E+01	-6.06310689048E+00	1.16631155772E+02	-6.07305424827E+00	1.16812673738E+02	-3.48457420676E+01	-5.79827492703E+01
8.00000000000E+09	-2.84657167966E+01	-1.08761543944E+00	-6.08380556524E+00	1.15006506052E+02	-5.98790863579E+00	1.15610502096E+02	-3.30293102745E+01	-3.51069601550E+01
