# Hz S DB R 50
! CMT, CMT804U, 21380002, 24.2.2/4
! Date: 25/11/2025 13:46:19
! Data: Format (Calibration Info)
! Freq	S11:dB/Ang(F2)	S21:dB/Ang(F2)	S12:dB/Ang(F2)	S22:dB/Ang(F2)
1.00000000000E+06	-4.05143410697E+01	-2.80474389628E-01	-5.87691009209E+00	-4.84696274572E-02	-5.87288598872E+00	-5.87947072110E-02	-3.75686725210E+01	-3.31165953092E-01
8.99900000000E+06	-4.04367546602E+01	9.36926871806E-01	-5.87790913161E+00	-2.96914578255E-01	-5.87470201523E+00	-3.03761483958E-01	-3.75582233932E+01	4.92677635112E-01
1.69980000000E+07	-4.03651206091E+01	1.17838466218E+00	-5.87903268393E+00	-5.45720361140E-01	-5.87540262332E+00	-5.55499120096E-01	-3.75190499225E+01	8.23308433736E-01
2.49970000000E+07	-4.03000514714E+01	1.44821251241E+00	-5.87999676686E+00	-8.04744359404E-01	-5.87633182990E+00	-8.12710854877E-01	-3.74752467352E+01	9.41478960117E-01
3.29960000000E+07	-4.02763747799E+01	1.56420062513E+00	-5.88105749837E+00	-1.05094701627E+00	-5.87580367468E+00	-1.04801107501E+00	-3.74607004311E+01	1.02840800390E+00
4.09950000000E+07	-4.02344992024E+01	1.82150210844E+00	-5.88192632983E+00	-1.29236638139E+00	-5.87807578308E+00	-1.30564071367E+00	-3.74319160428E+01	1.02495128409E+00
4.89940000000E+07	-4.01746719871E+01	1.87100756162E+00	-5.88290001357E+00	-1.54715367444E+00	-5.87835428324E+00	-1.55330147126E+00	-3.74166125125E+01	9.52178672055E-01
5.69930000000E+07	-4.01259016502E+01	1.73772302963E+00	-5.88296896808E+00	-1.78813124527E+00	-5.88066212332E+00	-1.79433756962E+00	-3.73835742032E+01	9.62278215165E-01
6.49920000000E+07	-4.01219938182E+01	1.92710286647E+00	-5.88351652400E+00	-2.03138307159E+00	-5.88071666417E+00	-2.03748430975E+00	-3.73687965620E+01	8.52958614786E-01
7.29910000000E+07	-4.00987347067E+01	1.90117968970E+00	-5.88495129819E+00	-2.27005128482E+00	-5.88037969517E+00	-2.28859073449E+00	-3.73504390596E+01	7.57724041600E-01
8.09900000000E+07	-4.00456481199E+01	1.82184435992E+00	-5.88560488023E+00	-2.52014410216E+00	-5.88290587485E+00	-2.53607027914E+00	-3.73109512355E+01	6.04351630285E-01
8.89890000000E+07	-3.99917786370E+01	1.64271101779E+00	-5.88703383336E+00	-2.76445500257E+00	-5.88278805067E+00	-2.77450727257E+00	-3.72878418790E+01	5.21103281251E-01
9.69880000000E+07	-3.99741292113E+01	1.48766097793E+00	-5.88868693368E+00	-3.00001546939E+00	-5.88250502137E+00	-3.01866977060E+00	-3.72407005131E+01	3.63864877185E-01
1.04987000000E+08	-3.99377689517E+01	1.33573508642E+00	-5.88812375927E+00	-3.25137232946E+00	-5.88593201814E+00	-3.26024139032E+00	-3.72151039802E+01	3.51123517006E-02
1.12986000000E+08	-3.99008609813E+01	1.05171887310E+00	-5.88813889964E+00	-3.48883969789E+00	-5.88421417416E+00	-3.50754940001E+00	-3.71880066511E+01	-1.74768674083E-01
1.20985000000E+08	-3.98934622395E+01	8.08680021993E-01	-5.88973470085E+00	-3.73267941550E+00	-5.88780777868E+00	-3.74957905741E+00	-3.71657626353E+01	-3.40635003416E-01
1.28984000000E+08	-3.98806026903E+01	6.81178109414E-01	-5.88937755145E+00	-3.97814112400E+00	-5.88636022817E+00	-4.00189307462E+00	-3.71394500081E+01	-3.01357270576E-01
1.36983000000E+08	-3.98615704321E+01	5.21763052503E-01	-5.89087809142E+00	-4.21747589798E+00	-5.88714302108E+00	-4.23204174424E+00	-3.71251822866E+01	-3.88057547219E-01
1.44982000000E+08	-3.98268678144E+01	3.03413192944E-01	-5.89091619562E+00	-4.46315053800E+00	-5.88711243243E+00	-4.47862785248E+00	-3.71021660170E+01	-4.58238089709E-01
1.52981000000E+08	-3.98208806281E+01	2.40970184525E-01	-5.89243315723E+00	-4.70433556472E+00	-5.88817314636E+00	-4.71545650668E+00	-3.70691462328E+01	-5.26132526957E-01
1.60980000000E+08	-3.97783546657E+01	1.13778762604E-01	-5.89306619641E+00	-4.94648964491E+00	-5.88860057604E+00	-4.96073073334E+00	-3.70585092841E+01	-5.91803572179E-01
1.68979000000E+08	-3.97474328886E+01	1.88921421717E-02	-5.89403587327E+00	-5.18420741400E+00	-5.88922914610E+00	-5.20394251671E+00	-3.70550214760E+01	-5.75793744726E-01
1.76978000000E+08	-3.97184336837E+01	-1.20241833146E-01	-5.89456402687E+00	-5.43014839895E+00	-5.89081044881E+00	-5.43806336484E+00	-3.70446622865E+01	-6.98476627894E-01
1.84977000000E+08	-3.96845946358E+01	-3.21459266817E-01	-5.89567600860E+00	-5.66369653874E+00	-5.89050338903E+00	-5.67638850455E+00	-3.70330016412E+01	-8.56941501850E-01
1.92976000000E+08	-3.96609543385E+01	-4.30971023477E-01	-5.89770581903E+00	-5.91423730016E+00	-5.89047162819E+00	-5.93176168786E+00	-3.70503161104E+01	-8.14863023233E-01
2.00975000000E+08	-3.96291567482E+01	-7.66897655458E-01	-5.89592755917E+00	-6.15269564878E+00	-5.89207087164E+00	-6.16852989548E+00	-3.70539472408E+01	-1.01707829121E+00
2.08974000000E+08	-3.95949788758E+01	-8.92944315170E-01	-5.89577063406E+00	-6.38744508985E+00	-5.89299943089E+00	-6.40946471480E+00	-3.70639710600E+01	-1.12755879144E+00
2.16973000000E+08	-3.95808024185E+01	-1.01002687120E+00	-5.89687565077E+00	-6.63250686429E+00	-5.89268679149E+00	-6.64605665279E+00	-3.70932344159E+01	-1.28624342705E+00
2.24972000000E+08	-3.95497124902E+01	-9.69780561972E-01	-5.89808788898E+00	-6.87391413624E+00	-5.89324197841E+00	-6.89292312978E+00	-3.71132569412E+01	-1.51297103405E+00
2.32971000000E+08	-3.95222876416E+01	-1.30281303671E+00	-5.89792831864E+00	-7.11572010741E+00	-5.89419948847E+00	-7.13132403732E+00	-3.71128672666E+01	-1.54613110646E+00
2.40970000000E+08	-3.95061940483E+01	-1.46728206468E+00	-5.89864980648E+00	-7.35184564914E+00	-5.89361074190E+00	-7.37285942686E+00	-3.71041571825E+01	-1.93245668090E+00
2.48969000000E+08	-3.94624831990E+01	-1.58119598252E+00	-5.89798896770E+00	-7.59129318920E+00	-5.89372862475E+00	-7.61458731729E+00	-3.71091976600E+01	-2.16283462976E+00
2.56968000000E+08	-3.94546211485E+01	-1.68932561405E+00	-5.89870707913E+00	-7.84574316838E+00	-5.89594698924E+00	-7.84813851357E+00	-3.71124267935E+01	-2.45470081227E+00
2.64967000000E+08	-3.94496676099E+01	-1.82340756532E+00	-5.90011209923E+00	-8.07728608048E+00	-5.89697686562E+00	-8.09440453328E+00	-3.70937039850E+01	-2.62191717999E+00
2.72966000000E+08	-3.94258947846E+01	-1.83589523338E+00	-5.90178166578E+00	-8.32530340650E+00	-5.89565310443E+00	-8.33806071976E+00	-3.70767815687E+01	-2.90972078197E+00
2.80965000000E+08	-3.94073875179E+01	-1.91792970132E+00	-5.90196509972E+00	-8.56560804652E+00	-5.89770527122E+00	-8.57645888816E+00	-3.70646475429E+01	-3.18449051940E+00
2.88964000000E+08	-3.94110341648E+01	-2.11431927004E+00	-5.90268864753E+00	-8.79796173775E+00	-5.89846147442E+00	-8.81769750463E+00	-3.70407196733E+01	-3.32776794958E+00
2.96963000000E+08	-3.94029042732E+01	-2.23409189890E+00	-5.90300171275E+00	-9.03719705098E+00	-5.89856565627E+00	-9.05720248780E+00	-3.70089692149E+01	-3.59438361162E+00
3.04962000000E+08	-3.93972183723E+01	-2.22614297923E+00	-5.90334782451E+00	-9.28657285876E+00	-5.89965796780E+00	-9.30559907999E+00	-3.70149718929E+01	-3.70451369929E+00
3.12961000000E+08	-3.93769364806E+01	-2.13096101370E+00	-5.90403054648E+00	-9.52242349396E+00	-5.90053099220E+00	-9.53611934227E+00	-3.69957809111E+01	-3.74341037917E+00
3.20960000000E+08	-3.93944284908E+01	-2.43256985852E+00	-5.90388370471E+00	-9.75611466350E+00	-5.90027827395E+00	-9.76915114635E+00	-3.69898865585E+01	-3.86429569370E+00
3.28959000000E+08	-3.93803251918E+01	-2.53139619536E+00	-5.90484563271E+00	-9.98428355602E+00	-5.90255057274E+00	-1.00189661612E+01	-3.69749997738E+01	-3.97487928685E+00
3.36958000000E+08	-3.93730326042E+01	-2.75969099920E+00	-5.90462824250E+00	-1.02359839153E+01	-5.90005091316E+00	-1.02556047457E+01	-3.69563181047E+01	-4.09646546771E+00
3.44957000000E+08	-3.93721408556E+01	-3.05046855933E+00	-5.90496424296E+00	-1.04813103974E+01	-5.90091147634E+00	-1.04945307568E+01	-3.69634211928E+01	-4.28180861102E+00
3.52956000000E+08	-3.93597658883E+01	-3.23659212140E+00	-5.90453985949E+00	-1.07172877972E+01	-5.90130823972E+00	-1.07339820142E+01	-3.69764274547E+01	-4.24710230576E+00
3.60955000000E+08	-3.93539376507E+01	-3.46020847305E+00	-5.90590419421E+00	-1.09576655540E+01	-5.90174004129E+00	-1.09801297017E+01	-3.69651918013E+01	-4.40403701253E+00
3.68954000000E+08	-3.93425240552E+01	-3.64740244384E+00	-5.90577145394E+00	-1.12026852639E+01	-5.90262443292E+00	-1.12242558661E+01	-3.69763242860E+01	-4.55175730831E+00
3.76953000000E+08	-3.93242639070E+01	-3.89001306251E+00	-5.90661872244E+00	-1.14360674824E+01	-5.90251121537E+00	-1.14651769028E+01	-3.69970766481E+01	-4.76219609872E+00
3.84952000000E+08	-3.93144215172E+01	-4.11171246492E+00	-5.90766352477E+00	-1.16815522308E+01	-5.90374248661E+00	-1.16997912795E+01	-3.70050506215E+01	-4.86340021670E+00
3.92951000000E+08	-3.92777016673E+01	-4.47655351685E+00	-5.90821429244E+00	-1.19247001005E+01	-5.90482158271E+00	-1.19439991217E+01	-3.70482061442E+01	-5.08590205492E+00
4.00950000000E+08	-3.92450046816E+01	-4.71452770909E+00	-5.90932119984E+00	-1.21641427029E+01	-5.90434062134E+00	-1.21779748515E+01	-3.70489754974E+01	-5.45367004905E+00
4.08949000000E+08	-3.91954785825E+01	-4.80775759734E+00	-5.90931232977E+00	-1.23955781129E+01	-5.90622801975E+00	-1.24125097308E+01	-3.70749931026E+01	-5.65294297996E+00
4.16948000000E+08	-3.91635814703E+01	-5.13232066337E+00	-5.90974609626E+00	-1.26385798954E+01	-5.90592511020E+00	-1.26566429532E+01	-3.70883948546E+01	-6.05804579348E+00
4.24947000000E+08	-3.91303981556E+01	-5.12518792077E+00	-5.91054351652E+00	-1.28762427020E+01	-5.90604693158E+00	-1.28890754906E+01	-3.70979889994E+01	-6.26920414568E+00
4.32946000000E+08	-3.91253791436E+01	-5.33502299164E+00	-5.91039197589E+00	-1.31149945630E+01	-5.90551495682E+00	-1.31308085346E+01	-3.71125770187E+01	-6.50019868905E+00
4.40945000000E+08	-3.90738630946E+01	-5.66829776819E+00	-5.90975660517E+00	-1.33485600314E+01	-5.90632915361E+00	-1.33774683735E+01	-3.71264336109E+01	-6.76286912286E+00
4.48944000000E+08	-3.90603256952E+01	-5.76298864179E+00	-5.91062042197E+00	-1.35939149403E+01	-5.90685856093E+00	-1.36147322384E+01	-3.71045410655E+01	-7.07227094990E+00
4.56943000000E+08	-3.90450916712E+01	-5.83876811103E+00	-5.91081219420E+00	-1.38418091336E+01	-5.90626895001E+00	-1.38530320551E+01	-3.71073223948E+01	-7.30738818024E+00
4.64942000000E+08	-3.90175334371E+01	-6.01311667654E+00	-5.90984229277E+00	-1.40736075297E+01	-5.90771108594E+00	-1.40966908870E+01	-3.70887326356E+01	-7.59150460648E+00
4.72941000000E+08	-3.90237109927E+01	-6.06361257116E+00	-5.91117195298E+00	-1.43162613542E+01	-5.90822055377E+00	-1.43371768451E+01	-3.70908459750E+01	-7.83541458853E+00
4.80940000000E+08	-3.90108451870E+01	-6.17145033778E+00	-5.91253416947E+00	-1.45566468767E+01	-5.90804748098E+00	-1.45794071108E+01	-3.70816377781E+01	-7.99744506159E+00
4.88939000000E+08	-3.90257554858E+01	-6.08371164076E+00	-5.91349813187E+00	-1.47959826248E+01	-5.90830753834E+00	-1.48196656554E+01	-3.70635489186E+01	-8.24031948317E+00
4.96938000000E+08	-3.90445105773E+01	-6.29867419523E+00	-5.91392733281E+00	-1.50389251096E+01	-5.90953490401E+00	-1.50619208443E+01	-3.70631053136E+01	-8.36411249617E+00
5.04937000000E+08	-3.90505880391E+01	-6.58747296561E+00	-5.91489606910E+00	-1.52782050036E+01	-5.91120644201E+00	-1.52974890465E+01	-3.70846097256E+01	-8.59633328420E+00
5.12936000000E+08	-3.90498049128E+01	-6.66212182073E+00	-5.91572185140E+00	-1.55085192887E+01	-5.91131358807E+00	-1.55333975326E+01	-3.70891715486E+01	-8.77786720282E+00
5.20935000000E+08	-3.90481448573E+01	-6.90988575367E+00	-5.91649273346E+00	-1.57368703450E+01	-5.91148478831E+00	-1.57609948745E+01	-3.71064512292E+01	-8.88658920496E+00
5.28934000000E+08	-3.90506274648E+01	-7.15539966900E+00	-5.91507477856E+00	-1.59796570528E+01	-5.91127301043E+00	-1.60015391991E+01	-3.71244139196E+01	-8.99336806744E+00
5.36933000000E+08	-3.90546521246E+01	-7.31398998234E+00	-5.91644785691E+00	-1.62194746949E+01	-5.91114212669E+00	-1.62432359296E+01	-3.71267306904E+01	-9.25556897691E+00
5.44932000000E+08	-3.90444019300E+01	-7.63307216981E+00	-5.91380347484E+00	-1.64518486381E+01	-5.91058644081E+00	-1.64797454391E+01	-3.71811082566E+01	-9.33790820941E+00
5.52931000000E+08	-3.90325977503E+01	-8.00054683790E+00	-5.91407773961E+00	-1.66953423780E+01	-5.91194656427E+00	-1.67177732727E+01	-3.71883883447E+01	-9.56475734915E+00
5.60930000000E+08	-3.90111602413E+01	-8.28818757987E+00	-5.91430758478E+00	-1.69348581397E+01	-5.91122655409E+00	-1.69612851219E+01	-3.72285811762E+01	-9.70133654208E+00
5.68929000000E+08	-3.90050423027E+01	-8.57290561823E+00	-5.91365388171E+00	-1.71834469428E+01	-5.91107489779E+00	-1.72067867368E+01	-3.72400612850E+01	-1.00439632496E+01
5.76928000000E+08	-3.89636047722E+01	-8.90985442712E+00	-5.91484775046E+00	-1.74287627413E+01	-5.91064332496E+00	-1.74476430485E+01	-3.72694963517E+01	-1.02049329630E+01
5.84927000000E+08	-3.89358868270E+01	-9.23561687260E+00	-5.91522160995E+00	-1.76730562399E+01	-5.91099477740E+00	-1.76883602441E+01	-3.72987280432E+01	-1.05427279585E+01
5.92926000000E+08	-3.89102583815E+01	-9.32210030414E+00	-5.91618611585E+00	-1.79103238153E+01	-5.91353221544E+00	-1.79348748502E+01	-3.73231677631E+01	-1.08051745135E+01
6.00925000000E+08	-3.88854338597E+01	-9.47975657529E+00	-5.91793013115E+00	-1.81522984675E+01	-5.91277257626E+00	-1.81814723300E+01	-3.73295159647E+01	-1.11861643510E+01
6.08924000000E+08	-3.88524707947E+01	-9.85391542815E+00	-5.91947592595E+00	-1.83893217219E+01	-5.91413562335E+00	-1.84147866194E+01	-3.73500249730E+01	-1.14445524912E+01
6.16923000000E+08	-3.88228795054E+01	-9.88753881058E+00	-5.91970219974E+00	-1.86260803021E+01	-5.91514958885E+00	-1.86527468966E+01	-3.73710078643E+01	-1.16590577506E+01
6.24922000000E+08	-3.87680850113E+01	-1.00526307624E+01	-5.92007170838E+00	-1.88675471117E+01	-5.91470797016E+00	-1.88917986840E+01	-3.73859722321E+01	-1.20601298197E+01
6.32921000000E+08	-3.87941395203E+01	-1.00307244354E+01	-5.92061473594E+00	-1.90974710219E+01	-5.91650565895E+00	-1.91190869729E+01	-3.74140823310E+01	-1.22915195569E+01
6.40920000000E+08	-3.87600057339E+01	-1.01714661492E+01	-5.92034408733E+00	-1.93281975116E+01	-5.91583187901E+00	-1.93659837038E+01	-3.74071025263E+01	-1.25173206457E+01
6.48919000000E+08	-3.87730374048E+01	-1.05584393813E+01	-5.91942442484E+00	-1.95673445754E+01	-5.91546274079E+00	-1.95972040636E+01	-3.74192773986E+01	-1.26173653182E+01
6.56918000000E+08	-3.87673965065E+01	-1.05132918672E+01	-5.92006728544E+00	-1.98048964553E+01	-5.91593419520E+00	-1.98353864485E+01	-3.74271063239E+01	-1.29376869205E+01
6.64917000000E+08	-3.87836209288E+01	-1.06627697056E+01	-5.91980408502E+00	-2.00415293263E+01	-5.91575787305E+00	-2.00692515811E+01	-3.74500937898E+01	-1.30955384211E+01
6.72916000000E+08	-3.87847870601E+01	-1.08436846490E+01	-5.91922123509E+00	-2.02787077694E+01	-5.91708571267E+00	-2.03115167683E+01	-3.74883294645E+01	-1.32917293574E+01
6.80915000000E+08	-3.88155255671E+01	-1.10813662830E+01	-5.92007377008E+00	-2.05296725170E+01	-5.91564911701E+00	-2.05588198005E+01	-3.75032012945E+01	-1.34614989045E+01
6.88914000000E+08	-3.88275276558E+01	-1.13274767307E+01	-5.92026561045E+00	-2.07645786514E+01	-5.91609454530E+00	-2.08039753310E+01	-3.74998906096E+01	-1.35951230759E+01
6.96913000000E+08	-3.88352351804E+01	-1.14188064644E+01	-5.92026253350E+00	-2.10069000909E+01	-5.91662797313E+00	-2.10394112843E+01	-3.75355255132E+01	-1.37753662811E+01
7.04912000000E+08	-3.88458545498E+01	-1.15866259323E+01	-5.91996876422E+00	-2.12498866995E+01	-5.91814099549E+00	-2.12855772080E+01	-3.75725899422E+01	-1.40720940998E+01
7.12911000000E+08	-3.88426350968E+01	-1.19497627395E+01	-5.92187662189E+00	-2.14878024699E+01	-5.91828831082E+00	-2.15110932764E+01	-3.75890922007E+01	-1.41474864837E+01
7.20910000000E+08	-3.88161853322E+01	-1.21599211783E+01	-5.92320795533E+00	-2.17224747769E+01	-5.91843569504E+00	-2.17588536583E+01	-3.76035962362E+01	-1.43570481235E+01
7.28909000000E+08	-3.88011778524E+01	-1.23373507060E+01	-5.92382014826E+00	-2.19578075357E+01	-5.92011237689E+00	-2.19859117283E+01	-3.76463777811E+01	-1.46550705550E+01
7.36908000000E+08	-3.87877544494E+01	-1.27515581560E+01	-5.92305086507E+00	-2.21904462620E+01	-5.91791645075E+00	-2.22284775013E+01	-3.76922393767E+01	-1.49014077108E+01
7.44907000000E+08	-3.87622491610E+01	-1.30177160545E+01	-5.92197697075E+00	-2.24281843202E+01	-5.91869143902E+00	-2.24609091561E+01	-3.77155727897E+01	-1.52143667606E+01
7.52906000000E+08	-3.87361603269E+01	-1.31339560024E+01	-5.92284495047E+00	-2.26730743881E+01	-5.91853382906E+00	-2.26949780777E+01	-3.77640003965E+01	-1.54803237439E+01
7.60905000000E+08	-3.87280862151E+01	-1.34616280712E+01	-5.92179519917E+00	-2.29035020143E+01	-5.91778494521E+00	-2.29401508730E+01	-3.78034925914E+01	-1.57056567618E+01
7.68904000000E+08	-3.86965187771E+01	-1.36509397370E+01	-5.92001158628E+00	-2.31371547834E+01	-5.91712862241E+00	-2.31828671289E+01	-3.78219850716E+01	-1.58952165377E+01
7.76903000000E+08	-3.86732598624E+01	-1.39696412097E+01	-5.92194546583E+00	-2.33927052270E+01	-5.91812635986E+00	-2.34227738192E+01	-3.78566771477E+01	-1.60534205658E+01
7.84902000000E+08	-3.86605592433E+01	-1.42632206144E+01	-5.92047463674E+00	-2.36361226113E+01	-5.91768006433E+00	-2.36673139579E+01	-3.78862594612E+01	-1.63441270886E+01
7.92901000000E+08	-3.86442082702E+01	-1.42971744715E+01	-5.92103817635E+00	-2.38806407603E+01	-5.91814088074E+00	-2.39078188503E+01	-3.79156265588E+01	-1.65569253020E+01
8.00900000000E+08	-3.86306520537E+01	-1.43317008353E+01	-5.92319256362E+00	-2.41351387725E+01	-5.91939155588E+00	-2.41550468511E+01	-3.79444033265E+01	-1.67467667489E+01
8.08899000000E+08	-3.86319020980E+01	-1.44097635889E+01	-5.92436749384E+00	-2.43672203891E+01	-5.92099415804E+00	-2.44025303706E+01	-3.79720575884E+01	-1.70962622455E+01
8.16898000000E+08	-3.86239862720E+01	-1.44743361145E+01	-5.92634739470E+00	-2.46087639860E+01	-5.92222803303E+00	-2.46395945118E+01	-3.80081962968E+01	-1.72886209800E+01
8.24897000000E+08	-3.86035310221E+01	-1.46313687425E+01	-5.92731241314E+00	-2.48383558937E+01	-5.92333958449E+00	-2.48754130471E+01	-3.80339014725E+01	-1.74834492102E+01
8.32896000000E+08	-3.85979138822E+01	-1.46913025507E+01	-5.92795297102E+00	-2.50675930921E+01	-5.92320648854E+00	-2.51051387493E+01	-3.80768566594E+01	-1.76628348094E+01
8.40895000000E+08	-3.85748020017E+01	-1.48861114980E+01	-5.92846581988E+00	-2.53083747524E+01	-5.92418582163E+00	-2.53343318569E+01	-3.81065768350E+01	-1.80845424428E+01
8.48894000000E+08	-3.85895171673E+01	-1.51692025890E+01	-5.92768781963E+00	-2.55292151051E+01	-5.92422606689E+00	-2.55698207086E+01	-3.81396418989E+01	-1.82868330364E+01
8.56893000000E+08	-3.86135313069E+01	-1.53325728561E+01	-5.92814697529E+00	-2.57658963136E+01	-5.92360497899E+00	-2.58071461519E+01	-3.81854471737E+01	-1.84856678113E+01
8.64892000000E+08	-3.86085998270E+01	-1.54160596735E+01	-5.92706169694E+00	-2.59919157721E+01	-5.92309776180E+00	-2.60395076701E+01	-3.82154835895E+01	-1.87706091103E+01
8.72891000000E+08	-3.86087726730E+01	-1.57954004453E+01	-5.92559648349E+00	-2.62302347466E+01	-5.92166685861E+00	-2.62792584057E+01	-3.82395823916E+01	-1.90760698957E+01
8.80890000000E+08	-3.85898127705E+01	-1.58361765612E+01	-5.92544571201E+00	-2.64762613039E+01	-5.92052517948E+00	-2.65185710767E+01	-3.83047723984E+01	-1.92109093746E+01
8.88889000000E+08	-3.85914325649E+01	-1.60426905877E+01	-5.92381334755E+00	-2.67179962787E+01	-5.92078445624E+00	-2.67589475724E+01	-3.83330549465E+01	-1.94892029713E+01
8.96888000000E+08	-3.85831742254E+01	-1.62403859870E+01	-5.92316922943E+00	-2.69677192045E+01	-5.91976403925E+00	-2.70070087478E+01	-3.83541391273E+01	-1.95897708392E+01
9.04887000000E+08	-3.85804023270E+01	-1.64056939616E+01	-5.92419819229E+00	-2.72172735559E+01	-5.92130441565E+00	-2.72565392099E+01	-3.83589281916E+01	-1.99984226929E+01
9.12886000000E+08	-3.85763482873E+01	-1.65590291978E+01	-5.92499827701E+00	-2.74560153824E+01	-5.92167294897E+00	-2.74989798914E+01	-3.84052689137E+01	-2.02698978107E+01
9.20885000000E+08	-3.85638960938E+01	-1.66556883010E+01	-5.92540745440E+00	-2.77077408862E+01	-5.92273725092E+00	-2.77437488825E+01	-3.84386598691E+01	-2.05388355886E+01
9.28884000000E+08	-3.85664767129E+01	-1.68546669229E+01	-5.92589218160E+00	-2.79411964253E+01	-5.92222199390E+00	-2.79827170190E+01	-3.84940280000E+01	-2.06539236502E+01
9.36883000000E+08	-3.85393487280E+01	-1.67944968169E+01	-5.92812871947E+00	-2.81894439424E+01	-5.92420273839E+00	-2.82258452833E+01	-3.85141503535E+01	-2.08197885677E+01
9.44882000000E+08	-3.85428500933E+01	-1.69105505898E+01	-5.92974478543E+00	-2.84180831642E+01	-5.92407243892E+00	-2.84596880197E+01	-3.85446171177E+01	-2.10165790694E+01
9.52881000000E+08	-3.85221352913E+01	-1.70318446626E+01	-5.92996627387E+00	-2.86580928496E+01	-5.92506217330E+00	-2.86877623297E+01	-3.85989829847E+01	-2.12340446557E+01
9.60880000000E+08	-3.85089904527E+01	-1.73431348097E+01	-5.92879433430E+00	-2.88822112970E+01	-5.92577490613E+00	-2.89237218725E+01	-3.86411374531E+01	-2.14457081177E+01
9.68879000000E+08	-3.85315965056E+01	-1.73695692161E+01	-5.92884288206E+00	-2.91215679834E+01	-5.92490904666E+00	-2.91637666168E+01	-3.86881398173E+01	-2.16414728528E+01
9.76878000000E+08	-3.85377821639E+01	-1.77241179480E+01	-5.92889962080E+00	-2.93593385601E+01	-5.92549227149E+00	-2.93976387097E+01	-3.87540057718E+01	-2.18196223872E+01
9.84877000000E+08	-3.85513833087E+01	-1.78453669946E+01	-5.92876081631E+00	-2.95898903640E+01	-5.92451420813E+00	-2.96291637810E+01	-3.87843033196E+01	-2.20120318496E+01
9.92876000000E+08	-3.85530915323E+01	-1.80401746068E+01	-5.92907791711E+00	-2.98391439580E+01	-5.92376192124E+00	-2.98760562328E+01	-3.88724170752E+01	-2.21930549919E+01
1.00087500000E+09	-3.85451411896E+01	-1.81292593483E+01	-5.92807247684E+00	-3.00797787926E+01	-5.92472546994E+00	-3.01190589107E+01	-3.88957595702E+01	-2.23651637524E+01
1.00887400000E+09	-3.85715172691E+01	-1.84353576917E+01	-5.92883665984E+00	-3.03167865960E+01	-5.92553096511E+00	-3.03617737040E+01	-3.89728622516E+01	-2.26647614248E+01
1.01687300000E+09	-3.85875790486E+01	-1.85653147321E+01	-5.92976180526E+00	-3.05586508253E+01	-5.92447923360E+00	-3.06081685067E+01	-3.90193451254E+01	-2.29253704801E+01
1.02487200000E+09	-3.85695789364E+01	-1.89055110814E+01	-5.93036513692E+00	-3.07979697185E+01	-5.92698473987E+00	-3.08436660968E+01	-3.90587837003E+01	-2.30825037738E+01
1.03287100000E+09	-3.85534007599E+01	-1.90331816157E+01	-5.93212451943E+00	-3.10389278111E+01	-5.92739651643E+00	-3.10819530449E+01	-3.91053069867E+01	-2.35601394590E+01
1.04087000000E+09	-3.85550720728E+01	-1.93024415064E+01	-5.93110763005E+00	-3.12706541519E+01	-5.92780551548E+00	-3.13108185596E+01	-3.91583351676E+01	-2.38718450671E+01
1.04886900000E+09	-3.85113429826E+01	-1.95617039119E+01	-5.93241860136E+00	-3.15007429556E+01	-5.92828487960E+00	-3.15462871233E+01	-3.92118631474E+01	-2.43153710640E+01
1.05686800000E+09	-3.85188200590E+01	-1.96846674847E+01	-5.93228649798E+00	-3.17451800783E+01	-5.92773720597E+00	-3.17780764248E+01	-3.92579387773E+01	-2.46925901606E+01
1.06486700000E+09	-3.85042500049E+01	-1.99641630062E+01	-5.93133985618E+00	-3.19661025200E+01	-5.92757185978E+00	-3.20097940134E+01	-3.93214566297E+01	-2.50963571633E+01
1.07286600000E+09	-3.84750892855E+01	-2.02626971218E+01	-5.92999636637E+00	-3.22038775725E+01	-5.92703115720E+00	-3.22466992553E+01	-3.93587699077E+01	-2.53677323696E+01
1.08086500000E+09	-3.84588589294E+01	-2.04034487906E+01	-5.92984312840E+00	-3.24422302718E+01	-5.92593128789E+00	-3.24855029963E+01	-3.93870065793E+01	-2.56350042907E+01
1.08886400000E+09	-3.84316739611E+01	-2.04400025159E+01	-5.92953226863E+00	-3.26832789918E+01	-5.92511115913E+00	-3.27284422453E+01	-3.94353798984E+01	-2.57238876416E+01
1.09686300000E+09	-3.84309649643E+01	-2.05413371511E+01	-5.92671451031E+00	-3.29267913676E+01	-5.92446543608E+00	-3.29730784566E+01	-3.94678328363E+01	-2.61086738474E+01
1.10486200000E+09	-3.84204203537E+01	-2.07449381974E+01	-5.92798789902E+00	-3.31792097840E+01	-5.92445688804E+00	-3.32211152520E+01	-3.94964930101E+01	-2.61432303547E+01
1.11286100000E+09	-3.84484310520E+01	-2.07691689060E+01	-5.92873898181E+00	-3.34222459333E+01	-5.92513389338E+00	-3.34664453682E+01	-3.95172717955E+01	-2.63253869619E+01
1.12086000000E+09	-3.84331132516E+01	-2.07900577128E+01	-5.92861945416E+00	-3.36701552889E+01	-5.92665582154E+00	-3.37108969335E+01	-3.95784995939E+01	-2.65682623497E+01
1.12885900000E+09	-3.84319572580E+01	-2.08554195684E+01	-5.93050357231E+00	-3.39243188323E+01	-5.92727047058E+00	-3.39608946638E+01	-3.96222555755E+01	-2.68299606177E+01
1.13685800000E+09	-3.84465692773E+01	-2.08501756625E+01	-5.93323209393E+00	-3.41587488958E+01	-5.92833149152E+00	-3.41919567302E+01	-3.96673477368E+01	-2.66692852268E+01
1.14485700000E+09	-3.84385824633E+01	-2.09703237793E+01	-5.93435758167E+00	-3.44057186452E+01	-5.93068560676E+00	-3.44291899213E+01	-3.97288245993E+01	-2.70034299687E+01
1.15285600000E+09	-3.84381176842E+01	-2.10563975016E+01	-5.93578116581E+00	-3.46306209077E+01	-5.93119757430E+00	-3.46646967469E+01	-3.97825212983E+01	-2.71924491087E+01
1.16085500000E+09	-3.84119182023E+01	-2.10913747023E+01	-5.93778219861E+00	-3.48709439965E+01	-5.93250110849E+00	-3.49025335866E+01	-3.98229857062E+01	-2.72611337660E+01
1.16885400000E+09	-3.84093283557E+01	-2.14339841856E+01	-5.93752305930E+00	-3.50879295108E+01	-5.93282246759E+00	-3.51275786718E+01	-3.99193550082E+01	-2.73534427851E+01
1.17685300000E+09	-3.84120064106E+01	-2.16605592497E+01	-5.93717956263E+00	-3.53221879958E+01	-5.93186484656E+00	-3.53555730445E+01	-4.00064460538E+01	-2.76215102060E+01
1.18485200000E+09	-3.84236466135E+01	-2.17758243686E+01	-5.93610220389E+00	-3.55451953135E+01	-5.93114608264E+00	-3.55869472153E+01	-4.00828471415E+01	-2.79871051127E+01
1.19285100000E+09	-3.84098771365E+01	-2.21245634179E+01	-5.93441692109E+00	-3.57785369020E+01	-5.92996775231E+00	-3.58347296131E+01	-4.01809620221E+01	-2.81811119577E+01
1.20085000000E+09	-3.84299595927E+01	-2.24380987645E+01	-5.93284833658E+00	-3.60152325562E+01	-5.92927632469E+00	-3.60646712869E+01	-4.02341274072E+01	-2.84672480314E+01
1.20884900000E+09	-3.84145244611E+01	-2.24020003594E+01	-5.93107672481E+00	-3.62607996461E+01	-5.92859185283E+00	-3.63109209022E+01	-4.03071033597E+01	-2.84688288915E+01
1.21684800000E+09	-3.83881318910E+01	-2.27819539246E+01	-5.93029329062E+00	-3.65091636691E+01	-5.92697509309E+00	-3.65570006392E+01	-4.03602106423E+01	-2.91173680926E+01
1.22484700000E+09	-3.83814392552E+01	-2.29002317750E+01	-5.92956047966E+00	-3.67633468243E+01	-5.92769652104E+00	-3.68054954082E+01	-4.04266808125E+01	-2.94319799879E+01
1.23284600000E+09	-3.83518539333E+01	-2.28909398034E+01	-5.92937991366E+00	-3.70094136699E+01	-5.92789455121E+00	-3.70575920788E+01	-4.04902544487E+01	-2.99245506357E+01
1.24084500000E+09	-3.83268935864E+01	-2.31603368358E+01	-5.93217212035E+00	-3.72625301169E+01	-5.92808792429E+00	-3.73032806144E+01	-4.05341890499E+01	-3.01379898151E+01
1.24884400000E+09	-3.83351857266E+01	-2.31339388803E+01	-5.93279099116E+00	-3.75019561124E+01	-5.92925855789E+00	-3.75405576246E+01	-4.05979634573E+01	-3.05681732968E+01
1.25684300000E+09	-3.83171425418E+01	-2.32076749359E+01	-5.93386831485E+00	-3.77466481652E+01	-5.93119357031E+00	-3.77779693306E+01	-4.06531505008E+01	-3.07995953155E+01
1.26484200000E+09	-3.82947885808E+01	-2.31930033145E+01	-5.93596724873E+00	-3.79861108184E+01	-5.93162852387E+00	-3.80111139637E+01	-4.06999858017E+01	-3.10266712132E+01
1.27284100000E+09	-3.82790582642E+01	-2.32718252825E+01	-5.93750272531E+00	-3.82127959962E+01	-5.93345704954E+00	-3.82399689472E+01	-4.07473329562E+01	-3.12301400233E+01
1.28084000000E+09	-3.82737232624E+01	-2.32370539582E+01	-5.93721226373E+00	-3.84372984039E+01	-5.93392374073E+00	-3.84838585292E+01	-4.07984553329E+01	-3.15307682888E+01
1.28883900000E+09	-3.82739763970E+01	-2.33287076172E+01	-5.93719741707E+00	-3.86756898026E+01	-5.93325203066E+00	-3.87086675698E+01	-4.08695992088E+01	-3.15351742438E+01
1.29683800000E+09	-3.83039851090E+01	-2.33185458137E+01	-5.93671490321E+00	-3.89139380913E+01	-5.93197436287E+00	-3.89514525367E+01	-4.09447500317E+01	-3.17278012722E+01
1.30483700000E+09	-3.83059386251E+01	-2.35740715977E+01	-5.93657530060E+00	-3.91452360030E+01	-5.93251804341E+00	-3.91820857522E+01	-4.09781149248E+01	-3.18461943419E+01
1.31283600000E+09	-3.83138245817E+01	-2.33868309975E+01	-5.93533413033E+00	-3.93852695205E+01	-5.93126355629E+00	-3.94237189056E+01	-4.10515984637E+01	-3.17489106077E+01
1.32083500000E+09	-3.83345233715E+01	-2.34610673396E+01	-5.93394922979E+00	-3.96257451484E+01	-5.92982411575E+00	-3.96637882545E+01	-4.11287619884E+01	-3.16615775215E+01
1.32883400000E+09	-3.83410015612E+01	-2.35819188541E+01	-5.93382381144E+00	-3.98761910709E+01	-5.92954396972E+00	-3.99146518243E+01	-4.12220989156E+01	-3.19957723327E+01
1.33683300000E+09	-3.83650060942E+01	-2.37297479710E+01	-5.93497629684E+00	-4.01268012067E+01	-5.93092932689E+00	-4.01615084790E+01	-4.13227058463E+01	-3.21626573859E+01
1.34483200000E+09	-3.83834897640E+01	-2.37740459729E+01	-5.93540461401E+00	-4.03645281290E+01	-5.93314594946E+00	-4.04071545269E+01	-4.14038031828E+01	-3.21119162656E+01
1.35283100000E+09	-3.83754878497E+01	-2.39931391535E+01	-5.93773112879E+00	-4.06185093864E+01	-5.93462568092E+00	-4.06462519633E+01	-4.14906445495E+01	-3.23741737726E+01
1.36083000000E+09	-3.83585661194E+01	-2.40813420870E+01	-5.93881471990E+00	-4.08500323725E+01	-5.93531758527E+00	-4.08814725435E+01	-4.15960464070E+01	-3.30314704111E+01
1.36882900000E+09	-3.83647147849E+01	-2.44572433343E+01	-5.94007093960E+00	-4.10858497442E+01	-5.93645393987E+00	-4.11162856886E+01	-4.16954751709E+01	-3.30127703114E+01
1.37682800000E+09	-3.83487256087E+01	-2.47104135943E+01	-5.94042834609E+00	-4.13136496658E+01	-5.93780743794E+00	-4.13425300833E+01	-4.17932074450E+01	-3.33656815691E+01
1.38482700000E+09	-3.83608284576E+01	-2.50652250956E+01	-5.94136092572E+00	-4.15415206622E+01	-5.93720797141E+00	-4.15674815286E+01	-4.18938772563E+01	-3.40284535219E+01
1.39282600000E+09	-3.83260302229E+01	-2.51613947172E+01	-5.94117230986E+00	-4.17628068209E+01	-5.93601357376E+00	-4.17975008969E+01	-4.20107055865E+01	-3.41418487484E+01
1.40082500000E+09	-3.83221524565E+01	-2.55134067214E+01	-5.93893488499E+00	-4.19865002763E+01	-5.93614848730E+00	-4.20384588700E+01	-4.21167867108E+01	-3.47749213825E+01
1.40882400000E+09	-3.83102871372E+01	-2.56493488009E+01	-5.93708230918E+00	-4.22335235012E+01	-5.93383739463E+00	-4.22654570375E+01	-4.21983497580E+01	-3.52519962407E+01
1.41682300000E+09	-3.83169541140E+01	-2.58907174177E+01	-5.93561877959E+00	-4.24732818725E+01	-5.93224165886E+00	-4.25086037668E+01	-4.22567047076E+01	-3.54836320914E+01
1.42482200000E+09	-3.83206848850E+01	-2.59035798610E+01	-5.93340858476E+00	-4.27231617104E+01	-5.93098950549E+00	-4.27606254464E+01	-4.23258941029E+01	-3.56775522310E+01
1.43282100000E+09	-3.83070425825E+01	-2.59572617203E+01	-5.93252897181E+00	-4.29717439075E+01	-5.92973473809E+00	-4.30059620533E+01	-4.23876890180E+01	-3.61511103151E+01
1.44082000000E+09	-3.82952707897E+01	-2.60990346999E+01	-5.93251274916E+00	-4.32242166646E+01	-5.92996330748E+00	-4.32649355483E+01	-4.24583764871E+01	-3.66119704275E+01
1.44881900000E+09	-3.82839106229E+01	-2.60258997566E+01	-5.93332027073E+00	-4.34757964150E+01	-5.93110326769E+00	-4.35143341930E+01	-4.25405145743E+01	-3.68858509083E+01
1.45681800000E+09	-3.82764135890E+01	-2.59400562935E+01	-5.93455660606E+00	-4.37301966730E+01	-5.93254523756E+00	-4.37581235663E+01	-4.25947165278E+01	-3.69631950120E+01
1.46481700000E+09	-3.82933163695E+01	-2.60386050151E+01	-5.93690065658E+00	-4.39639528687E+01	-5.93399302212E+00	-4.40023704837E+01	-4.26735005347E+01	-3.70416696655E+01
1.47281600000E+09	-3.82694925836E+01	-2.60693334000E+01	-5.94017499440E+00	-4.42149853417E+01	-5.93644542716E+00	-4.42418248214E+01	-4.27506718941E+01	-3.69893997576E+01
1.48081500000E+09	-3.82418340640E+01	-2.59974191123E+01	-5.94199145566E+00	-4.44500441338E+01	-5.93806834841E+00	-4.44784442854E+01	-4.28461551294E+01	-3.72251236895E+01
1.48881400000E+09	-3.82459456639E+01	-2.61905942593E+01	-5.94404954079E+00	-4.46664756112E+01	-5.94021102481E+00	-4.47054169302E+01	-4.29223886343E+01	-3.72084401476E+01
1.49681300000E+09	-3.82513313282E+01	-2.64134266637E+01	-5.94439850099E+00	-4.48968523910E+01	-5.94126409465E+00	-4.49324865789E+01	-4.30018437718E+01	-3.73667857273E+01
1.50481200000E+09	-3.82473144648E+01	-2.65203780820E+01	-5.94442999569E+00	-4.51241770840E+01	-5.94046297691E+00	-4.51660470786E+01	-4.31517748144E+01	-3.74203617194E+01
1.51281100000E+09	-3.82770275332E+01	-2.66911073241E+01	-5.94238246791E+00	-4.53472279626E+01	-5.93962730852E+00	-4.53885838072E+01	-4.32712619029E+01	-3.77340001962E+01
1.52081000000E+09	-3.82859353880E+01	-2.69138022300E+01	-5.94140870834E+00	-4.55790939261E+01	-5.93795135170E+00	-4.56211104159E+01	-4.33887467825E+01	-3.75555333540E+01
1.52880900000E+09	-3.82799371015E+01	-2.70621975307E+01	-5.93976976992E+00	-4.58093731859E+01	-5.93712781147E+00	-4.58607965013E+01	-4.35511847883E+01	-3.77297973550E+01
1.53680800000E+09	-3.82876646961E+01	-2.71087257208E+01	-5.93743231309E+00	-4.60503351129E+01	-5.93587869327E+00	-4.61021658287E+01	-4.36964473421E+01	-3.81802681408E+01
1.54480700000E+09	-3.82912351858E+01	-2.72264982856E+01	-5.93671462629E+00	-4.63006416886E+01	-5.93385061610E+00	-4.63448446737E+01	-4.37705766189E+01	-3.84443482596E+01
1.55280600000E+09	-3.82830171285E+01	-2.72913002905E+01	-5.93574262584E+00	-4.65526902546E+01	-5.93371250440E+00	-4.65991695009E+01	-4.39105420449E+01	-3.89302155395E+01
1.56080500000E+09	-3.82759724351E+01	-2.73715402152E+01	-5.93575159645E+00	-4.68031892062E+01	-5.93456833707E+00	-4.68499762463E+01	-4.39969389511E+01	-3.92878353319E+01
1.56880400000E+09	-3.82533298576E+01	-2.76378743395E+01	-5.93683108522E+00	-4.70537860776E+01	-5.93568578190E+00	-4.70981073796E+01	-4.41437005177E+01	-3.98155790875E+01
1.57680300000E+09	-3.82583476615E+01	-2.77334653256E+01	-5.93849645565E+00	-4.73013832098E+01	-5.93766578448E+00	-4.73338015644E+01	-4.42567214172E+01	-4.02601302133E+01
1.58480200000E+09	-3.82498568940E+01	-2.77544291846E+01	-5.94052239414E+00	-4.75368321631E+01	-5.93906445602E+00	-4.75651656690E+01	-4.43732243236E+01	-4.09118400187E+01
1.59280100000E+09	-3.82452936266E+01	-2.79732484729E+01	-5.94128051845E+00	-4.77726257414E+01	-5.93966485120E+00	-4.77943765445E+01	-4.44736988736E+01	-4.12723620085E+01
1.60080000000E+09	-3.82164836873E+01	-2.81149524638E+01	-5.94284576217E+00	-4.80114558234E+01	-5.94048744373E+00	-4.80279159436E+01	-4.46009856080E+01	-4.13989383782E+01
1.60879900000E+09	-3.82276207421E+01	-2.83762395176E+01	-5.94281028730E+00	-4.82302648871E+01	-5.93984732766E+00	-4.82590480429E+01	-4.47057491434E+01	-4.21357303997E+01
1.61679800000E+09	-3.82112732293E+01	-2.85139587311E+01	-5.94234527952E+00	-4.84593162516E+01	-5.93853915282E+00	-4.84827831461E+01	-4.47613803028E+01	-4.21954786308E+01
1.62479700000E+09	-3.82004364465E+01	-2.87428429242E+01	-5.94127188563E+00	-4.86968879963E+01	-5.93721904393E+00	-4.87222650853E+01	-4.48789947198E+01	-4.26997472193E+01
1.63279600000E+09	-3.81952890124E+01	-2.87726613117E+01	-5.94017357337E+00	-4.89352274877E+01	-5.93539866977E+00	-4.89699153154E+01	-4.49313962719E+01	-4.28783592539E+01
1.64079500000E+09	-3.82206408143E+01	-2.87966578377E+01	-5.93963057428E+00	-4.91784982415E+01	-5.93327030441E+00	-4.92168741337E+01	-4.50676589266E+01	-4.25058935755E+01
1.64879400000E+09	-3.81976308082E+01	-2.87646652578E+01	-5.93758923572E+00	-4.94255016244E+01	-5.93379957454E+00	-4.94663994907E+01	-4.51423172786E+01	-4.28547125109E+01
1.65679300000E+09	-3.82026363860E+01	-2.89023437170E+01	-5.93609165893E+00	-4.96816654348E+01	-5.93434569586E+00	-4.97121889866E+01	-4.52824188560E+01	-4.28684285070E+01
1.66479200000E+09	-3.82110141458E+01	-2.88363903505E+01	-5.93862468523E+00	-4.99319498262E+01	-5.93461870989E+00	-4.99681254843E+01	-4.54210035676E+01	-4.29263958815E+01
1.67279100000E+09	-3.81951850662E+01	-2.89698674634E+01	-5.94006885950E+00	-5.01819087073E+01	-5.93794874569E+00	-5.02228472624E+01	-4.56015564427E+01	-4.30618565381E+01
1.68079000000E+09	-3.81805110462E+01	-2.90361928846E+01	-5.94152824081E+00	-5.04212526936E+01	-5.94014283665E+00	-5.04600827743E+01	-4.56933281446E+01	-4.31720458244E+01
1.68878900000E+09	-3.81598820682E+01	-2.91042603382E+01	-5.94384625367E+00	-5.06530228643E+01	-5.94291097747E+00	-5.06905774206E+01	-4.58426619069E+01	-4.31223342563E+01
1.69678800000E+09	-3.81256584997E+01	-2.91856990497E+01	-5.94607227217E+00	-5.08782112985E+01	-5.94491272603E+00	-5.09258613748E+01	-4.60156097781E+01	-4.33858006951E+01
1.70478700000E+09	-3.81398123043E+01	-2.93771328527E+01	-5.94695014000E+00	-5.11193297876E+01	-5.94571201732E+00	-5.11466384002E+01	-4.61985329184E+01	-4.33909728007E+01
1.71278600000E+09	-3.81153072474E+01	-2.96250319598E+01	-5.94649934824E+00	-5.13340995944E+01	-5.94505167219E+00	-5.13663487320E+01	-4.63608579179E+01	-4.41546726038E+01
1.72078500000E+09	-3.81260799554E+01	-2.97028462813E+01	-5.94620136512E+00	-5.15565379988E+01	-5.94380717318E+00	-5.15892397821E+01	-4.66303600030E+01	-4.44798060007E+01
1.72878400000E+09	-3.81290020902E+01	-2.98109356475E+01	-5.94499499499E+00	-5.17818676080E+01	-5.94265843047E+00	-5.18112806432E+01	-4.67335552815E+01	-4.44211977468E+01
1.73678300000E+09	-3.81246192682E+01	-2.98299074361E+01	-5.94214805273E+00	-5.20221270271E+01	-5.93825856798E+00	-5.20476628358E+01	-4.68679623190E+01	-4.48932803987E+01
1.74478200000E+09	-3.81280097489E+01	-2.99366856174E+01	-5.94024226169E+00	-5.22612091959E+01	-5.93700936432E+00	-5.22866756235E+01	-4.70415519738E+01	-4.53174712323E+01
1.75278100000E+09	-3.80925568311E+01	-2.99583595390E+01	-5.93765720063E+00	-5.25034017948E+01	-5.93287494582E+00	-5.25451331884E+01	-4.72317382280E+01	-4.56368368323E+01
1.76078000000E+09	-3.80842990454E+01	-3.01372094750E+01	-5.93577037391E+00	-5.27691755680E+01	-5.93237208200E+00	-5.28023515650E+01	-4.72649694124E+01	-4.60898423519E+01
1.76877900000E+09	-3.81093542697E+01	-3.02341095568E+01	-5.93551868948E+00	-5.30275929105E+01	-5.93193215139E+00	-5.30547722702E+01	-4.74456998497E+01	-4.68577230993E+01
1.77677800000E+09	-3.80838944174E+01	-3.01457319041E+01	-5.93714817529E+00	-5.32757516106E+01	-5.93219554211E+00	-5.33272248267E+01	-4.76488619765E+01	-4.69788831070E+01
1.78477700000E+09	-3.80885365366E+01	-3.02927684228E+01	-5.93845058362E+00	-5.35300394776E+01	-5.93509836733E+00	-5.35745589998E+01	-4.78103347374E+01	-4.74623880975E+01
1.79277600000E+09	-3.80605649882E+01	-3.02248915671E+01	-5.94226981550E+00	-5.37803365644E+01	-5.93900251744E+00	-5.38167198843E+01	-4.80057230976E+01	-4.78288825939E+01
1.80077500000E+09	-3.80600407340E+01	-3.03397570829E+01	-5.94427519243E+00	-5.40115347244E+01	-5.94168257987E+00	-5.40493143678E+01	-4.81894650856E+01	-4.81888895682E+01
1.80877400000E+09	-3.80381076648E+01	-3.04043801803E+01	-5.94662966431E+00	-5.42348068061E+01	-5.94384815789E+00	-5.42831391087E+01	-4.82996659653E+01	-4.77907624074E+01
1.81677300000E+09	-3.80334116121E+01	-3.06001286997E+01	-5.94792044180E+00	-5.44589787843E+01	-5.94697416308E+00	-5.45116388171E+01	-4.84857232844E+01	-4.85108466483E+01
1.82477200000E+09	-3.80147205337E+01	-3.08157299896E+01	-5.94952429071E+00	-5.46773966497E+01	-5.94729693843E+00	-5.47360098648E+01	-4.86450385030E+01	-4.84331010141E+01
1.83277100000E+09	-3.80016986944E+01	-3.09462697606E+01	-5.94706071330E+00	-5.48918160427E+01	-5.94745275199E+00	-5.49519009415E+01	-4.89061488441E+01	-4.87170732442E+01
1.84077000000E+09	-3.79975275580E+01	-3.10508656763E+01	-5.94586794306E+00	-5.51174270411E+01	-5.94568517968E+00	-5.51729418413E+01	-4.90122372277E+01	-4.83256528197E+01
1.84876900000E+09	-3.79949816501E+01	-3.10285295298E+01	-5.94377516315E+00	-5.53523715787E+01	-5.94159474975E+00	-5.53950879877E+01	-4.93292933547E+01	-4.86010363613E+01
1.85676800000E+09	-3.80039646322E+01	-3.10996990905E+01	-5.94107475061E+00	-5.55917069318E+01	-5.93993304869E+00	-5.56296478348E+01	-4.94674689620E+01	-4.83281412998E+01
1.86476700000E+09	-3.79844316069E+01	-3.09732510801E+01	-5.93882910775E+00	-5.58418382505E+01	-5.93684501741E+00	-5.58765729345E+01	-4.96897433901E+01	-4.82470931187E+01
1.87276600000E+09	-3.79831721811E+01	-3.10350145577E+01	-5.93818068139E+00	-5.60865549550E+01	-5.93573487939E+00	-5.61232909967E+01	-4.98872939516E+01	-4.86480704528E+01
1.88076500000E+09	-3.79627416297E+01	-3.09980303102E+01	-5.93811272431E+00	-5.63436360466E+01	-5.93503153207E+00	-5.63703589965E+01	-5.02033686045E+01	-4.94005204934E+01
1.88876400000E+09	-3.79538356360E+01	-3.10223100458E+01	-5.93816709856E+00	-5.65867269366E+01	-5.93518681624E+00	-5.66270704483E+01	-5.05134400823E+01	-4.99288584989E+01
1.89676300000E+09	-3.79664242204E+01	-3.10918100441E+01	-5.94070240212E+00	-5.68424309638E+01	-5.93605442773E+00	-5.68692515924E+01	-5.07563943892E+01	-5.01068912007E+01
1.90476200000E+09	-3.79237783749E+01	-3.10746868076E+01	-5.94322277500E+00	-5.70913448953E+01	-5.93881572536E+00	-5.71115438750E+01	-5.10903208391E+01	-4.97270148415E+01
1.91276100000E+09	-3.79126897470E+01	-3.12800329839E+01	-5.94494597339E+00	-5.73131047476E+01	-5.94105744010E+00	-5.73526884249E+01	-5.13166566131E+01	-5.03615654637E+01
1.92076000000E+09	-3.79191081122E+01	-3.12306223360E+01	-5.94839590059E+00	-5.75520611025E+01	-5.94313463913E+00	-5.75884320659E+01	-5.15916238790E+01	-5.22040480631E+01
1.92875900000E+09	-3.79292315878E+01	-3.14872422556E+01	-5.94847444401E+00	-5.77591559286E+01	-5.94360733187E+00	-5.78118093980E+01	-5.18785667422E+01	-5.24133992889E+01
1.93675800000E+09	-3.79193482445E+01	-3.15731672128E+01	-5.94776965037E+00	-5.79902000667E+01	-5.94281253998E+00	-5.80380812142E+01	-5.21801614943E+01	-5.25065168474E+01
1.94475700000E+09	-3.79077841031E+01	-3.16289077419E+01	-5.94526023638E+00	-5.82193186733E+01	-5.94353653670E+00	-5.82679072462E+01	-5.24274043611E+01	-5.37079568470E+01
1.95275600000E+09	-3.79267077149E+01	-3.17182140829E+01	-5.94332759124E+00	-5.84442487482E+01	-5.94064283818E+00	-5.85011990740E+01	-5.25466884251E+01	-5.28291544735E+01
1.96075500000E+09	-3.79335765924E+01	-3.17823836586E+01	-5.94091022543E+00	-5.86842752076E+01	-5.93809728085E+00	-5.87417891803E+01	-5.28739715431E+01	-5.41418201881E+01
1.96875400000E+09	-3.79110468020E+01	-3.19404693431E+01	-5.93726881862E+00	-5.89336467813E+01	-5.93731092720E+00	-5.89939041763E+01	-5.29703199225E+01	-5.44666770715E+01
1.97675300000E+09	-3.79076016835E+01	-3.19745572582E+01	-5.93597043279E+00	-5.91894260352E+01	-5.93589292927E+00	-5.92477851265E+01	-5.33273866245E+01	-5.42556476846E+01
1.98475200000E+09	-3.78895416262E+01	-3.20198839521E+01	-5.93713906754E+00	-5.94553203372E+01	-5.93575294213E+00	-5.95007798538E+01	-5.35448229098E+01	-5.40790170631E+01
1.99275100000E+09	-3.78843653317E+01	-3.20377121214E+01	-5.93820758652E+00	-5.97194871738E+01	-5.93796078455E+00	-5.97571225789E+01	-5.38435294250E+01	-5.48004986270E+01
2.00075000000E+09	-3.78737270882E+01	-3.21144783749E+01	-5.93993848665E+00	-5.99697005354E+01	-5.94100867889E+00	-5.99891174462E+01	-5.42166596976E+01	-5.49237388644E+01
2.00874900000E+09	-3.78509512347E+01	-3.20873340278E+01	-5.94427834765E+00	-6.02177956417E+01	-5.94465191966E+00	-6.02363272523E+01	-5.45861210222E+01	-5.48070793010E+01
2.01674800000E+09	-3.78355696065E+01	-3.21575926605E+01	-5.94789792161E+00	-6.04440442712E+01	-5.94683863681E+00	-6.04673447099E+01	-5.50398811142E+01	-5.43789959349E+01
2.02474700000E+09	-3.78033367873E+01	-3.23736811522E+01	-5.95202474347E+00	-6.06736401654E+01	-5.95000729703E+00	-6.06826001447E+01	-5.53727816390E+01	-5.32265330765E+01
2.03274600000E+09	-3.77776716451E+01	-3.23656042472E+01	-5.95322734232E+00	-6.08751347682E+01	-5.95005891204E+00	-6.09008452878E+01	-5.59633307288E+01	-5.33343415009E+01
2.04074500000E+09	-3.77738042891E+01	-3.24247571059E+01	-5.95392792417E+00	-6.10966254078E+01	-5.94910387386E+00	-6.11243401802E+01	-5.63878806832E+01	-5.40178238585E+01
2.04874400000E+09	-3.77941247046E+01	-3.24284455815E+01	-5.95276429429E+00	-6.13063316882E+01	-5.94703382824E+00	-6.13305502504E+01	-5.71531757864E+01	-5.28139186871E+01
2.05674300000E+09	-3.77820946839E+01	-3.24520649335E+01	-5.94965965612E+00	-6.15211715764E+01	-5.94328825252E+00	-6.15620349629E+01	-5.76907435303E+01	-5.17414645880E+01
2.06474200000E+09	-3.77636341458E+01	-3.23385156940E+01	-5.94700484771E+00	-6.17567046321E+01	-5.94108918576E+00	-6.18042234499E+01	-5.83484123676E+01	-5.13143074158E+01
2.07274100000E+09	-3.77745069744E+01	-3.22779213822E+01	-5.94142027783E+00	-6.19967929973E+01	-5.93670037727E+00	-6.20502032145E+01	-5.88265897871E+01	-5.14119581282E+01
2.08074000000E+09	-3.77539280442E+01	-3.22936565059E+01	-5.93779163883E+00	-6.22346874856E+01	-5.93375546834E+00	-6.23034140488E+01	-5.91757775080E+01	-5.27842340968E+01
2.08873900000E+09	-3.77504575296E+01	-3.24421983749E+01	-5.93450476262E+00	-6.25016349134E+01	-5.93280796898E+00	-6.25726809317E+01	-5.97218707701E+01	-5.44310306011E+01
2.09673800000E+09	-3.77661098224E+01	-3.22831594666E+01	-5.93400662076E+00	-6.27692816213E+01	-5.93402320433E+00	-6.28394874349E+01	-6.05483236534E+01	-5.74522342343E+01
2.10473700000E+09	-3.77663299532E+01	-3.24244727998E+01	-5.93631473597E+00	-6.30350805732E+01	-5.93574140678E+00	-6.31015937828E+01	-6.19128625599E+01	-5.93286608240E+01
2.11273600000E+09	-3.77230431675E+01	-3.24548485332E+01	-5.93864297271E+00	-6.33055288446E+01	-5.94093030312E+00	-6.33520277987E+01	-6.27339363333E+01	-6.35834078407E+01
2.12073500000E+09	-3.77558396453E+01	-3.25282918677E+01	-5.94452909854E+00	-6.35497328613E+01	-5.94382946171E+00	-6.35976347013E+01	-6.32072227349E+01	-6.20481919081E+01
2.12873400000E+09	-3.77044701153E+01	-3.27410506550E+01	-5.94705359966E+00	-6.37860254890E+01	-5.94982838239E+00	-6.38205925527E+01	-6.45153819487E+01	-5.98156272050E+01
2.13673300000E+09	-3.76888615879E+01	-3.28347074941E+01	-5.95184825187E+00	-6.40010665918E+01	-5.95273166096E+00	-6.40407916804E+01	-6.52915799067E+01	-6.29541922832E+01
2.14473200000E+09	-3.76891416741E+01	-3.31522547747E+01	-5.95383875428E+00	-6.42231247999E+01	-5.95577989289E+00	-6.42478294844E+01	-6.70145977629E+01	-5.73400719792E+01
2.15273100000E+09	-3.76850467405E+01	-3.31306800489E+01	-5.95540688164E+00	-6.44239479208E+01	-5.95474251763E+00	-6.44550562223E+01	-6.87382770794E+01	-6.45836043234E+01
2.16073000000E+09	-3.76882983912E+01	-3.31910713639E+01	-5.95436951535E+00	-6.46277181600E+01	-5.95360800724E+00	-6.46606654064E+01	-7.09845338892E+01	-5.20608347972E+01
2.16872900000E+09	-3.77081356154E+01	-3.33049551596E+01	-5.95009517762E+00	-6.48387689236E+01	-5.94981734775E+00	-6.48686497075E+01	-7.36205368757E+01	-4.40979052199E+01
2.17672800000E+09	-3.76688715059E+01	-3.31064154350E+01	-5.94538693813E+00	-6.50794141022E+01	-5.94541166195E+00	-6.50998188514E+01	-7.54786375496E+01	-4.08301442629E+01
2.18472700000E+09	-3.76441996032E+01	-3.30339637914E+01	-5.94014349625E+00	-6.53151380767E+01	-5.94053586314E+00	-6.53588940952E+01	-7.51114614351E+01	-1.71840577104E+01
2.19272600000E+09	-3.76132136861E+01	-3.30169921582E+01	-5.93667699730E+00	-6.55777009511E+01	-5.93643485660E+00	-6.56095742540E+01	-7.73571669184E+01	-6.21702875606E+00
2.20072500000E+09	-3.75959277174E+01	-3.31275322276E+01	-5.93446972350E+00	-6.58483355880E+01	-5.93364602841E+00	-6.58830128789E+01	-7.99783768836E+01	3.79899747815E+01
2.20872400000E+09	-3.75889429035E+01	-3.30050413999E+01	-5.93432710754E+00	-6.61104596860E+01	-5.93391839171E+00	-6.61539677720E+01	-7.89965131362E+01	8.02891912311E+01
2.21672300000E+09	-3.75787287942E+01	-3.29997834413E+01	-5.93559943181E+00	-6.63766522073E+01	-5.93537818250E+00	-6.64233337361E+01	-7.35662906971E+01	1.07913502515E+02
2.22472200000E+09	-3.75860714638E+01	-3.30664561929E+01	-5.93922307548E+00	-6.66498370613E+01	-5.94046459767E+00	-6.66798608192E+01	-7.06006818576E+01	1.15414346959E+02
2.23272100000E+09	-3.75640326348E+01	-3.30892002713E+01	-5.94451641967E+00	-6.68990854280E+01	-5.94520328540E+00	-6.69320395225E+01	-6.73212667968E+01	1.10216009375E+02
2.24072000000E+09	-3.75727177970E+01	-3.29796393728E+01	-5.94869830509E+00	-6.71366277588E+01	-5.95005749685E+00	-6.71693024508E+01	-6.59201839723E+01	1.05078845542E+02
2.24871900000E+09	-3.75346505078E+01	-3.31297527662E+01	-5.95392077582E+00	-6.73565087026E+01	-5.95250931259E+00	-6.73869137660E+01	-6.50927852941E+01	1.08085879574E+02
2.25671800000E+09	-3.75634629496E+01	-3.34278698835E+01	-5.95581805971E+00	-6.75690511597E+01	-5.95458939126E+00	-6.76005973139E+01	-6.38519408739E+01	1.11451008249E+02
2.26471700000E+09	-3.75873871323E+01	-3.34555127235E+01	-5.95696969084E+00	-6.77780706681E+01	-5.95518005215E+00	-6.78151340338E+01	-6.29187066192E+01	1.13315236632E+02
2.27271600000E+09	-3.75926333068E+01	-3.35173739112E+01	-5.95451728105E+00	-6.79794903395E+01	-5.95369924612E+00	-6.80164968096E+01	-6.18514650696E+01	1.12987444910E+02
2.28071500000E+09	-3.76055616815E+01	-3.35982887086E+01	-5.95190737430E+00	-6.82005860942E+01	-5.94961594102E+00	-6.82439228190E+01	-6.09262444577E+01	1.11465483929E+02
2.28871400000E+09	-3.75902189657E+01	-3.35045342480E+01	-5.94784112902E+00	-6.84362580668E+01	-5.94595673098E+00	-6.84743033957E+01	-6.04760204415E+01	1.09691269333E+02
2.29671300000E+09	-3.75685036539E+01	-3.36963856445E+01	-5.94299918339E+00	-6.86826188560E+01	-5.94209733633E+00	-6.87201780940E+01	-5.99816124202E+01	1.11237775970E+02
2.30471200000E+09	-3.75411632749E+01	-3.37623950838E+01	-5.93658723271E+00	-6.89332656540E+01	-5.93892221306E+00	-6.89794710758E+01	-5.95821759714E+01	1.10578876005E+02
2.31271100000E+09	-3.75284393371E+01	-3.39939974377E+01	-5.93523238894E+00	-6.92093657421E+01	-5.93674297378E+00	-6.92387315538E+01	-5.92367033721E+01	1.12960254603E+02
2.32071000000E+09	-3.74912192344E+01	-3.40331824275E+01	-5.93462365437E+00	-6.94735280722E+01	-5.93736266708E+00	-6.95028858530E+01	-5.84930591094E+01	1.12805254488E+02
2.32870900000E+09	-3.74807706809E+01	-3.41771043440E+01	-5.93626001381E+00	-6.97446086856E+01	-5.93837555322E+00	-6.97648523240E+01	-5.79738773754E+01	1.11744056355E+02
2.33670800000E+09	-3.74743588650E+01	-3.42198707007E+01	-5.93954230949E+00	-7.00022649066E+01	-5.94185908988E+00	-7.00174554489E+01	-5.70295857454E+01	1.12165025183E+02
2.34470700000E+09	-3.74341308686E+01	-3.43402231828E+01	-5.94458729314E+00	-7.02438643803E+01	-5.94556684912E+00	-7.02560767290E+01	-5.67922800587E+01	1.09593187546E+02
2.35270600000E+09	-3.74296337643E+01	-3.43879165954E+01	-5.94786452548E+00	-7.04853156477E+01	-5.94950760187E+00	-7.04888739160E+01	-5.60451526560E+01	1.07757211495E+02
2.36070500000E+09	-3.73952089456E+01	-3.45822489801E+01	-5.95108000244E+00	-7.07064031431E+01	-5.95047565784E+00	-7.07195058038E+01	-5.58761795743E+01	1.07539314334E+02
2.36870400000E+09	-3.73806014571E+01	-3.45708367360E+01	-5.95304052916E+00	-7.09207362492E+01	-5.95080393423E+00	-7.09436858383E+01	-5.53058811049E+01	1.05994754823E+02
2.37670300000E+09	-3.73791417547E+01	-3.45246806554E+01	-5.95370182184E+00	-7.11324914949E+01	-5.94991157453E+00	-7.11606308861E+01	-5.49881434982E+01	1.06278764811E+02
2.38470200000E+09	-3.73805885531E+01	-3.45255410233E+01	-5.95000656851E+00	-7.13450564164E+01	-5.94825732968E+00	-7.13891715122E+01	-5.46374061369E+01	1.06371149629E+02
2.39270100000E+09	-3.73676807412E+01	-3.44817798302E+01	-5.94664442108E+00	-7.15756600937E+01	-5.94531236002E+00	-7.16110239413E+01	-5.42381192573E+01	1.06021668197E+02
2.40070000000E+09	-3.73320575158E+01	-3.43250864745E+01	-5.94295749807E+00	-7.18161723686E+01	-5.94219801263E+00	-7.18561741496E+01	-5.38724320371E+01	1.05397812661E+02
2.40869900000E+09	-3.73170442101E+01	-3.43101743012E+01	-5.93891264085E+00	-7.20628809093E+01	-5.94051405936E+00	-7.21118943076E+01	-5.35980741211E+01	1.06711294885E+02
2.41669800000E+09	-3.73320887552E+01	-3.44680404699E+01	-5.93666905653E+00	-7.23246203268E+01	-5.93833341793E+00	-7.23695192107E+01	-5.31674743345E+01	1.08258578937E+02
2.42469700000E+09	-3.73127023106E+01	-3.44090279685E+01	-5.93757898851E+00	-7.25922748819E+01	-5.93903487277E+00	-7.26333616242E+01	-5.28280598096E+01	1.08158758453E+02
2.43269600000E+09	-3.72909791612E+01	-3.44852584701E+01	-5.93916439037E+00	-7.28554390803E+01	-5.94079495847E+00	-7.28878464122E+01	-5.24923999945E+01	1.08350102830E+02
2.44069500000E+09	-3.72654037012E+01	-3.45647557351E+01	-5.94281225683E+00	-7.31177656197E+01	-5.94518831974E+00	-7.31377426700E+01	-5.22521608034E+01	1.08376476843E+02
2.44869400000E+09	-3.72684347281E+01	-3.47197572223E+01	-5.94568355277E+00	-7.33567793062E+01	-5.94793951615E+00	-7.33735007532E+01	-5.19142035610E+01	1.07237081279E+02
2.45669300000E+09	-3.72410691610E+01	-3.46826287521E+01	-5.95082659814E+00	-7.35894945113E+01	-5.95254191438E+00	-7.36061603325E+01	-5.17288997812E+01	1.06890148390E+02
2.46469200000E+09	-3.72318012396E+01	-3.48178810046E+01	-5.95187827769E+00	-7.38069592553E+01	-5.95413979094E+00	-7.38182980319E+01	-5.15579044146E+01	1.07117204830E+02
2.47269100000E+09	-3.72299396565E+01	-3.49449778622E+01	-5.95557825073E+00	-7.40091350281E+01	-5.95497554947E+00	-7.40236142344E+01	-5.13337764508E+01	1.06253686703E+02
2.48069000000E+09	-3.72021328161E+01	-3.50269212079E+01	-5.95514109025E+00	-7.42094707585E+01	-5.95346013450E+00	-7.42398114956E+01	-5.11999617199E+01	1.06079672948E+02
2.48868900000E+09	-3.71959099756E+01	-3.49501606143E+01	-5.95033254300E+00	-7.44219292427E+01	-5.94958819138E+00	-7.44513216028E+01	-5.09219148608E+01	1.05199488193E+02
2.49668800000E+09	-3.71553086123E+01	-3.50036738214E+01	-5.94651832875E+00	-7.46504115707E+01	-5.94495258400E+00	-7.46874487720E+01	-5.06819102638E+01	1.04382269429E+02
2.50468700000E+09	-3.71764200073E+01	-3.50727347609E+01	-5.94162989098E+00	-7.49082372851E+01	-5.94170589360E+00	-7.49350405650E+01	-5.05288815004E+01	1.04173255661E+02
2.51268600000E+09	-3.71357367930E+01	-3.51619358590E+01	-5.93429042594E+00	-7.51668650066E+01	-5.93695424242E+00	-7.52036907603E+01	-5.04627444911E+01	1.03925657050E+02
2.52068500000E+09	-3.70997930974E+01	-3.49936249299E+01	-5.93385952956E+00	-7.54383148291E+01	-5.93569705199E+00	-7.54713581051E+01	-5.01317022752E+01	1.04873835294E+02
2.52868400000E+09	-3.71004754138E+01	-3.49978172803E+01	-5.93194939247E+00	-7.57443686235E+01	-5.93520450812E+00	-7.57468378704E+01	-5.00239087660E+01	1.03912025637E+02
2.53668300000E+09	-3.70911349611E+01	-3.48804717430E+01	-5.93436972614E+00	-7.60087442466E+01	-5.93871385668E+00	-7.60268049134E+01	-4.95680582096E+01	1.04420512384E+02
2.54468200000E+09	-3.70923298838E+01	-3.48806769005E+01	-5.93850394267E+00	-7.62868088028E+01	-5.94166466450E+00	-7.62822583749E+01	-4.92461711935E+01	1.04808792878E+02
2.55268100000E+09	-3.70479730657E+01	-3.47415194786E+01	-5.94341992552E+00	-7.65539233216E+01	-5.94766297781E+00	-7.65391009946E+01	-4.89361365198E+01	1.03633451216E+02
2.56068000000E+09	-3.70517395400E+01	-3.49452483671E+01	-5.95049765997E+00	-7.68033407470E+01	-5.95436669064E+00	-7.67719937758E+01	-4.88382307365E+01	1.03056806507E+02
2.56867900000E+09	-3.70068283567E+01	-3.48942682869E+01	-5.95826165464E+00	-7.70339720369E+01	-5.95869302775E+00	-7.69867960209E+01	-4.85759896945E+01	1.02950921159E+02
2.57667800000E+09	-3.70268861731E+01	-3.50883571485E+01	-5.96396012366E+00	-7.72279610922E+01	-5.96052311227E+00	-7.71864046894E+01	-4.86225223621E+01	1.02938332165E+02
2.58467700000E+09	-3.69926364895E+01	-3.53606350708E+01	-5.96580732455E+00	-7.74252895227E+01	-5.96254389578E+00	-7.73987058371E+01	-4.84322099512E+01	1.02839046150E+02
2.59267600000E+09	-3.69985668058E+01	-3.52343295110E+01	-5.96793735611E+00	-7.76182366435E+01	-5.95880285473E+00	-7.76010565940E+01	-4.84574491214E+01	1.02293518309E+02
2.60067500000E+09	-3.70079250027E+01	-3.50279384670E+01	-5.96301305535E+00	-7.78102463452E+01	-5.95443000550E+00	-7.78145995302E+01	-4.81365167336E+01	1.01768778065E+02
2.60867400000E+09	-3.70061379307E+01	-3.52788825504E+01	-5.95806267774E+00	-7.80172957574E+01	-5.94805527997E+00	-7.80404291708E+01	-4.80146190778E+01	1.01494758043E+02
2.61667300000E+09	-3.69766274279E+01	-3.53469409169E+01	-5.94950983937E+00	-7.82565926417E+01	-5.94263205239E+00	-7.82874876143E+01	-4.79566075311E+01	1.01575584017E+02
2.62467200000E+09	-3.69825807720E+01	-3.53912580602E+01	-5.94324986644E+00	-7.85022106137E+01	-5.93886986955E+00	-7.85560748658E+01	-4.79338323487E+01	1.01543851624E+02
2.63267100000E+09	-3.69138106423E+01	-3.52058182649E+01	-5.93582152230E+00	-7.87637297533E+01	-5.93910954669E+00	-7.88233268309E+01	-4.76705645230E+01	1.02062645742E+02
2.64067000000E+09	-3.69393750093E+01	-3.55421951069E+01	-5.93341241995E+00	-7.90388177851E+01	-5.93454948525E+00	-7.90993140800E+01	-4.77184213780E+01	1.01334536335E+02
2.64866900000E+09	-3.69298867824E+01	-3.57343968463E+01	-5.93279703940E+00	-7.93419890223E+01	-5.93714794183E+00	-7.93764446113E+01	-4.74559191777E+01	1.01046086265E+02
2.65666800000E+09	-3.69003742186E+01	-3.56425656695E+01	-5.93482836591E+00	-7.96138850808E+01	-5.94349440845E+00	-7.96395633326E+01	-4.71143928117E+01	1.00361224752E+02
2.66466700000E+09	-3.68575091182E+01	-3.55188909741E+01	-5.94181682268E+00	-7.98872878670E+01	-5.94753229089E+00	-7.98977805601E+01	-4.70976952418E+01	9.93055951409E+01
2.67266600000E+09	-3.68402480086E+01	-3.55349515594E+01	-5.94738370614E+00	-8.01370709971E+01	-5.95328707407E+00	-8.01268908518E+01	-4.68210177806E+01	9.83051446902E+01
2.68066500000E+09	-3.68218434565E+01	-3.55455630298E+01	-5.95219499320E+00	-8.03708782386E+01	-5.95690518738E+00	-8.03536300227E+01	-4.67813768843E+01	9.81049629814E+01
2.68866400000E+09	-3.67617258640E+01	-3.55011916353E+01	-5.95520549586E+00	-8.05987591713E+01	-5.96043689554E+00	-8.05664930929E+01	-4.65658907332E+01	9.75586069573E+01
2.69666300000E+09	-3.67835743852E+01	-3.56354462620E+01	-5.95880484056E+00	-8.08063828742E+01	-5.96053408015E+00	-8.07530908073E+01	-4.64010892011E+01	9.79381203009E+01
2.70466200000E+09	-3.67790141169E+01	-3.55165485843E+01	-5.96099181972E+00	-8.10192378943E+01	-5.95789229666E+00	-8.09531947300E+01	-4.61704359949E+01	9.81319991953E+01
2.71266100000E+09	-3.67942003334E+01	-3.56300327663E+01	-5.95921355431E+00	-8.12170620885E+01	-5.95744032043E+00	-8.11880391217E+01	-4.61888270213E+01	9.71771274473E+01
2.72066000000E+09	-3.67849267791E+01	-3.53547400577E+01	-5.95498022370E+00	-8.14424239071E+01	-5.94965017709E+00	-8.14090536757E+01	-4.59748780805E+01	9.69710905800E+01
2.72865900000E+09	-3.67938132354E+01	-3.53630839168E+01	-5.94964728738E+00	-8.16780698827E+01	-5.94681599889E+00	-8.16602944409E+01	-4.59317236376E+01	9.74672420611E+01
2.73665800000E+09	-3.67583230340E+01	-3.55591301596E+01	-5.94526503087E+00	-8.19362221130E+01	-5.94111164008E+00	-8.19175143865E+01	-4.58888145300E+01	9.78046782708E+01
2.74465700000E+09	-3.67600529953E+01	-3.54549885733E+01	-5.94250181743E+00	-8.21857776788E+01	-5.93960767114E+00	-8.21895282795E+01	-4.56938688291E+01	9.73369225091E+01
2.75265600000E+09	-3.67491879339E+01	-3.55267289699E+01	-5.94109837726E+00	-8.24636647407E+01	-5.94070206212E+00	-8.24569555187E+01	-4.55070866340E+01	9.76255536174E+01
2.76065500000E+09	-3.67193112126E+01	-3.56489355582E+01	-5.94504239620E+00	-8.27361432341E+01	-5.94293826759E+00	-8.27312192740E+01	-4.53630415132E+01	9.70210135856E+01
2.76865400000E+09	-3.67251851329E+01	-3.55204404777E+01	-5.94840711511E+00	-8.29954806814E+01	-5.94733596864E+00	-8.29830945688E+01	-4.52636658150E+01	9.74322209763E+01
2.77665300000E+09	-3.66934598632E+01	-3.54863960255E+01	-5.95198805407E+00	-8.32274897536E+01	-5.95348071632E+00	-8.32303385505E+01	-4.52324386485E+01	9.64298442791E+01
2.78465200000E+09	-3.66863154011E+01	-3.59135215031E+01	-5.95751731236E+00	-8.34640448398E+01	-5.95625345836E+00	-8.34543437266E+01	-4.50419701981E+01	9.52300846140E+01
2.79265100000E+09	-3.66849571002E+01	-3.60572373873E+01	-5.96079414717E+00	-8.36900472845E+01	-5.96060454517E+00	-8.36750456585E+01	-4.50918599505E+01	9.48868315091E+01
2.80065000000E+09	-3.66529224556E+01	-3.64343771601E+01	-5.96317707699E+00	-8.39001688122E+01	-5.96215502825E+00	-8.38655710052E+01	-4.50962890015E+01	9.46302989647E+01
2.80864900000E+09	-3.66610089498E+01	-3.64209971555E+01	-5.96297186115E+00	-8.40837669484E+01	-5.96179921504E+00	-8.40791202401E+01	-4.50144157726E+01	9.41670099308E+01
2.81664800000E+09	-3.65956716898E+01	-3.65402224460E+01	-5.96102278779E+00	-8.43153500089E+01	-5.95767630524E+00	-8.43000340581E+01	-4.47861631313E+01	9.35722777466E+01
2.82464700000E+09	-3.66091637934E+01	-3.63761466548E+01	-5.95503663710E+00	-8.45313885220E+01	-5.95567050768E+00	-8.45194543587E+01	-4.45840723373E+01	9.31358161672E+01
2.83264600000E+09	-3.65351694754E+01	-3.65401775710E+01	-5.94974959101E+00	-8.47527802817E+01	-5.94941930360E+00	-8.47575358663E+01	-4.45045033649E+01	9.28114530381E+01
2.84064500000E+09	-3.65087034603E+01	-3.64972448687E+01	-5.94572618333E+00	-8.50175636933E+01	-5.94311668121E+00	-8.50089421098E+01	-4.44096378348E+01	9.28530578251E+01
2.84864400000E+09	-3.64828679072E+01	-3.68665043448E+01	-5.93876553507E+00	-8.52746904398E+01	-5.94223969232E+00	-8.52748316962E+01	-4.42243535473E+01	9.20296919277E+01
2.85664300000E+09	-3.65117472563E+01	-3.62121156779E+01	-5.93984876058E+00	-8.55720995269E+01	-5.94195522709E+00	-8.55541428780E+01	-4.40747459625E+01	9.34160774921E+01
2.86464200000E+09	-3.64581930218E+01	-3.62897426228E+01	-5.93986383895E+00	-8.58374898170E+01	-5.94256592175E+00	-8.58235384813E+01	-4.39127424490E+01	9.20749069521E+01
2.87264100000E+09	-3.64435574526E+01	-3.63894305059E+01	-5.94417088474E+00	-8.61092459472E+01	-5.94807321227E+00	-8.60845206712E+01	-4.37027174744E+01	9.22564464168E+01
2.88064000000E+09	-3.63890771079E+01	-3.62951763958E+01	-5.94986042376E+00	-8.63608122874E+01	-5.95151049997E+00	-8.63271767359E+01	-4.35084436726E+01	9.25107082764E+01
2.88863900000E+09	-3.63996860674E+01	-3.63368917180E+01	-5.95553732247E+00	-8.66188115773E+01	-5.95559207918E+00	-8.65721259091E+01	-4.34380576194E+01	9.20571974077E+01
2.89663800000E+09	-3.63673083606E+01	-3.64856330419E+01	-5.96179084151E+00	-8.68379072971E+01	-5.96038931575E+00	-8.67876498315E+01	-4.34326432820E+01	9.19781054169E+01
2.90463700000E+09	-3.63937850554E+01	-3.66132094871E+01	-5.96567814622E+00	-8.70477468631E+01	-5.96217243305E+00	-8.69996980605E+01	-4.34753800864E+01	9.22114699305E+01
2.91263600000E+09	-3.63341300665E+01	-3.68024394026E+01	-5.96790787414E+00	-8.72508593343E+01	-5.96142892090E+00	-8.72183576365E+01	-4.33683456263E+01	9.24023054410E+01
2.92063500000E+09	-3.63725989259E+01	-3.66413059584E+01	-5.96691087419E+00	-8.74565997831E+01	-5.96000826893E+00	-8.74246186628E+01	-4.32912733955E+01	9.24050995641E+01
2.92863400000E+09	-3.63152428316E+01	-3.68398370828E+01	-5.96650598116E+00	-8.76526560808E+01	-5.95730377716E+00	-8.76585625288E+01	-4.32401963931E+01	9.17371730756E+01
2.93663300000E+09	-3.63336018808E+01	-3.65917330352E+01	-5.96207145020E+00	-8.78777021731E+01	-5.95250482542E+00	-8.78817646602E+01	-4.32484098327E+01	9.14936142276E+01
2.94463200000E+09	-3.62601275084E+01	-3.69677215746E+01	-5.95601290135E+00	-8.81150940999E+01	-5.94853540912E+00	-8.81347719384E+01	-4.32536895215E+01	9.13527731931E+01
2.95263100000E+09	-3.62379305635E+01	-3.69011196907E+01	-5.95276125621E+00	-8.83670761086E+01	-5.94717986081E+00	-8.83920962734E+01	-4.31691686947E+01	9.04891615900E+01
2.96063000000E+09	-3.62182100702E+01	-3.67992653327E+01	-5.94748327230E+00	-8.86422671146E+01	-5.94633668286E+00	-8.86592734095E+01	-4.31335918905E+01	9.05796856823E+01
2.96862900000E+09	-3.61986978050E+01	-3.70103134786E+01	-5.94770421065E+00	-8.88943322951E+01	-5.94954200661E+00	-8.89124830519E+01	-4.30332699250E+01	8.97690696788E+01
2.97662800000E+09	-3.61889282632E+01	-3.68350204820E+01	-5.95120400938E+00	-8.91533154846E+01	-5.95219266603E+00	-8.91812790401E+01	-4.29566814340E+01	8.90961356829E+01
2.98462700000E+09	-3.61390707954E+01	-3.69205503446E+01	-5.95084025646E+00	-8.94107598147E+01	-5.95601634874E+00	-8.94098358868E+01	-4.27908093822E+01	8.87441220791E+01
2.99262600000E+09	-3.61012242422E+01	-3.68304106917E+01	-5.95457014280E+00	-8.96541471183E+01	-5.95993253693E+00	-8.96544513764E+01	-4.27573379724E+01	8.76094622105E+01
3.00062500000E+09	-3.60947057512E+01	-3.71386456488E+01	-5.95645548508E+00	-8.98945199717E+01	-5.96087927090E+00	-8.98707052113E+01	-4.24576337346E+01	8.73390015707E+01
3.00862400000E+09	-3.60525761434E+01	-3.71011823591E+01	-5.95770854646E+00	-9.01138997001E+01	-5.95950582015E+00	-9.00671527866E+01	-4.24036083005E+01	8.69897038346E+01
3.01662300000E+09	-3.60516919379E+01	-3.66674578608E+01	-5.95666455110E+00	-9.03341599977E+01	-5.95974755946E+00	-9.02897656099E+01	-4.23090743778E+01	8.65290740198E+01
3.02462200000E+09	-3.59994988855E+01	-3.68614213632E+01	-5.95493013095E+00	-9.05598895470E+01	-5.95579877967E+00	-9.05127529491E+01	-4.22409242961E+01	8.68239466962E+01
3.03262100000E+09	-3.60193402316E+01	-3.66953223040E+01	-5.95004973367E+00	-9.07990319218E+01	-5.95028762777E+00	-9.07597140789E+01	-4.20997406901E+01	8.68087948032E+01
3.04062000000E+09	-3.60407887779E+01	-3.68774343602E+01	-5.94741401722E+00	-9.10348974351E+01	-5.94510953602E+00	-9.09985781708E+01	-4.19820080286E+01	8.62916040322E+01
3.04861900000E+09	-3.60586622741E+01	-3.67691618179E+01	-5.94263629645E+00	-9.13016891595E+01	-5.93976291884E+00	-9.12656008141E+01	-4.19056658887E+01	8.70884027873E+01
3.05661800000E+09	-3.60315265482E+01	-3.65369820010E+01	-5.93977939530E+00	-9.15723837822E+01	-5.93992911515E+00	-9.15480470854E+01	-4.17561854420E+01	8.70416705821E+01
3.06461700000E+09	-3.60032787297E+01	-3.65101692310E+01	-5.93991325732E+00	-9.18675916542E+01	-5.93861684465E+00	-9.18293938631E+01	-4.16791468739E+01	8.74241529887E+01
3.07261600000E+09	-3.59973472285E+01	-3.64266120466E+01	-5.94446287177E+00	-9.21429466812E+01	-5.94396106552E+00	-9.21148554115E+01	-4.15592195236E+01	8.74439862061E+01
3.08061500000E+09	-3.59846323807E+01	-3.63648532823E+01	-5.95261972200E+00	-9.24053840409E+01	-5.94889812278E+00	-9.23700697985E+01	-4.15738235052E+01	8.69989542710E+01
3.08861400000E+09	-3.59407883138E+01	-3.66665608495E+01	-5.95839679846E+00	-9.26641556000E+01	-5.95801921239E+00	-9.26152073805E+01	-4.15845994648E+01	8.72144258234E+01
3.09661300000E+09	-3.59028448447E+01	-3.70386611710E+01	-5.96841423191E+00	-9.28817421336E+01	-5.96541071428E+00	-9.28337298396E+01	-4.15351310552E+01	8.68780392850E+01
3.10461200000E+09	-3.58974100719E+01	-3.68794793685E+01	-5.97686969718E+00	-9.30938244225E+01	-5.97253644129E+00	-9.30428320786E+01	-4.17731656611E+01	8.67649674493E+01
3.11261100000E+09	-3.59161889059E+01	-3.71247549887E+01	-5.98221099334E+00	-9.32723497621E+01	-5.97554245067E+00	-9.32319536513E+01	-4.17667628186E+01	8.61696159800E+01
3.12061000000E+09	-3.59453734730E+01	-3.70245367919E+01	-5.98325280392E+00	-9.34295718601E+01	-5.97455407520E+00	-9.34032607055E+01	-4.17253313535E+01	8.62654240344E+01
3.12860900000E+09	-3.59083954376E+01	-3.72901735477E+01	-5.97828619076E+00	-9.36012285775E+01	-5.97357459795E+00	-9.35888130125E+01	-4.16717073381E+01	8.59516161451E+01
3.13660800000E+09	-3.59006684467E+01	-3.73043796499E+01	-5.97221935135E+00	-9.37809961495E+01	-5.96708612713E+00	-9.37873175292E+01	-4.16341346828E+01	8.48622825148E+01
3.14460700000E+09	-3.58804810720E+01	-3.72022285524E+01	-5.96177931907E+00	-9.39879156306E+01	-5.95651825721E+00	-9.40000381835E+01	-4.15533513194E+01	8.42895808054E+01
3.15260600000E+09	-3.58341175875E+01	-3.75681415561E+01	-5.94991764427E+00	-9.42312136107E+01	-5.94920507022E+00	-9.42538381152E+01	-4.15631062274E+01	8.31421006595E+01
3.16060500000E+09	-3.57710484889E+01	-3.75459685149E+01	-5.93864719494E+00	-9.44991089619E+01	-5.94038304589E+00	-9.45308510924E+01	-4.14719364602E+01	8.27480931135E+01
3.16860400000E+09	-3.58320061191E+01	-3.75283742437E+01	-5.93242084987E+00	-9.47901316233E+01	-5.93682451958E+00	-9.48058365053E+01	-4.13230099846E+01	8.23662569127E+01
3.17660300000E+09	-3.58116743445E+01	-3.74505601994E+01	-5.92597830344E+00	-9.51034496616E+01	-5.93486801013E+00	-9.51060054340E+01	-4.11611122000E+01	8.22864789381E+01
3.18460200000E+09	-3.58097996745E+01	-3.73783589798E+01	-5.92814710845E+00	-9.54258653912E+01	-5.93636899915E+00	-9.53873176435E+01	-4.09360030881E+01	8.17284327434E+01
3.19260100000E+09	-3.57684925213E+01	-3.73289371646E+01	-5.93184919309E+00	-9.57285816054E+01	-5.94166770778E+00	-9.56713455235E+01	-4.08013485231E+01	8.16092550435E+01
3.20060000000E+09	-3.57182398565E+01	-3.75527256950E+01	-5.93951399500E+00	-9.60277279755E+01	-5.94994788942E+00	-9.59372478758E+01	-4.06576035179E+01	8.07842799071E+01
3.20859900000E+09	-3.56994916056E+01	-3.73606466160E+01	-5.95335732810E+00	-9.62845531521E+01	-5.95580951038E+00	-9.61763628616E+01	-4.05562963891E+01	8.07747474393E+01
3.21659800000E+09	-3.56800976405E+01	-3.74656857564E+01	-5.96351457087E+00	-9.65168241362E+01	-5.96262256355E+00	-9.63973134658E+01	-4.05247401460E+01	8.04419175022E+01
3.22459700000E+09	-3.56935736498E+01	-3.74294943027E+01	-5.97482240772E+00	-9.67252855313E+01	-5.96877588189E+00	-9.65950948762E+01	-4.05301750962E+01	8.07607851874E+01
3.23259600000E+09	-3.56614704982E+01	-3.75735890786E+01	-5.98146596503E+00	-9.68948771135E+01	-5.97160167974E+00	-9.67997492933E+01	-4.04842735106E+01	8.12162670420E+01
3.24059500000E+09	-3.57089856803E+01	-3.77338595640E+01	-5.98403144495E+00	-9.70692825335E+01	-5.96877987399E+00	-9.69874972846E+01	-4.04007948738E+01	8.13012346218E+01
3.24859400000E+09	-3.56624173885E+01	-3.77534707178E+01	-5.98187105087E+00	-9.72507497719E+01	-5.96590620089E+00	-9.71935155051E+01	-4.04055699125E+01	8.16161097993E+01
3.25659300000E+09	-3.56777568497E+01	-3.80155151472E+01	-5.97602182868E+00	-9.74335707371E+01	-5.96169777891E+00	-9.74276106661E+01	-4.02767465615E+01	8.16404436389E+01
3.26459200000E+09	-3.56696741710E+01	-3.77984611115E+01	-5.96750962155E+00	-9.76549769937E+01	-5.95814227546E+00	-9.76639777067E+01	-4.03833325836E+01	8.14751210966E+01
3.27259100000E+09	-3.56063650754E+01	-3.78362147210E+01	-5.95980066868E+00	-9.78948799330E+01	-5.95334768444E+00	-9.79196471147E+01	-4.03052232106E+01	8.14415102410E+01
3.28059000000E+09	-3.56027243910E+01	-3.79470457758E+01	-5.95553493726E+00	-9.81432113552E+01	-5.95183462687E+00	-9.81823017070E+01	-4.03162219428E+01	8.13604610769E+01
3.28858900000E+09	-3.55722211488E+01	-3.81391477669E+01	-5.95049168729E+00	-9.84098203453E+01	-5.95230518016E+00	-9.84384152791E+01	-4.02285919259E+01	8.09948821885E+01
3.29658800000E+09	-3.55649499924E+01	-3.82925125148E+01	-5.95021662046E+00	-9.86949589876E+01	-5.95383217029E+00	-9.87102724494E+01	-4.02288546954E+01	8.08348874767E+01
3.30458700000E+09	-3.55653150488E+01	-3.85204373246E+01	-5.95008047989E+00	-9.89744402240E+01	-5.95828160742E+00	-9.89376690635E+01	-4.01888688382E+01	8.02690373286E+01
3.31258600000E+09	-3.55344447878E+01	-3.83456284286E+01	-5.95376703256E+00	-9.92157820223E+01	-5.96352752894E+00	-9.91877692374E+01	-4.01926969186E+01	7.92196549706E+01
3.32058500000E+09	-3.54750863150E+01	-3.84739586033E+01	-5.95698340469E+00	-9.94733575284E+01	-5.96325358353E+00	-9.94007191289E+01	-4.01268524596E+01	7.89942167424E+01
3.32858400000E+09	-3.55102833158E+01	-3.85442450225E+01	-5.95926019003E+00	-9.97099564451E+01	-5.96358953503E+00	-9.96077143532E+01	-4.00866466206E+01	7.85139513250E+01
3.33658300000E+09	-3.54573101488E+01	-3.87511130679E+01	-5.96386603235E+00	-9.99420602780E+01	-5.96277134181E+00	-9.98279352849E+01	-4.00537475040E+01	7.81132398555E+01
3.34458200000E+09	-3.54505127857E+01	-3.87076327949E+01	-5.96081783980E+00	-1.00154240483E+02	-5.95787685830E+00	-1.00042375854E+02	-3.99396347278E+01	7.73980973670E+01
3.35258100000E+09	-3.54643301323E+01	-3.85912155049E+01	-5.96036862716E+00	-1.00379636908E+02	-5.95256652694E+00	-1.00274270273E+02	-3.99125412465E+01	7.75895631344E+01
3.36058000000E+09	-3.53882516846E+01	-3.86869263611E+01	-5.95376927959E+00	-1.00615821857E+02	-5.94658630673E+00	-1.00531080221E+02	-3.98235935741E+01	7.71586150928E+01
3.36857900000E+09	-3.53877975261E+01	-3.85144683370E+01	-5.95072799511E+00	-1.00857877031E+02	-5.94107938507E+00	-1.00813688785E+02	-3.97401218730E+01	7.73023807622E+01
3.37657800000E+09	-3.53877727563E+01	-3.86912544652E+01	-5.94750612572E+00	-1.01125622340E+02	-5.93970284829E+00	-1.01108027580E+02	-3.96117302236E+01	7.68499738697E+01
3.38457700000E+09	-3.53510007911E+01	-3.86689748461E+01	-5.94484467244E+00	-1.01421937486E+02	-5.94063987832E+00	-1.01412244395E+02	-3.94887925582E+01	7.69770682364E+01
3.39257600000E+09	-3.53050862101E+01	-3.86565954326E+01	-5.94946792400E+00	-1.01704987543E+02	-5.94560396136E+00	-1.01697003053E+02	-3.94408743933E+01	7.67146368323E+01
3.40057500000E+09	-3.53018329039E+01	-3.84592430994E+01	-5.95465565615E+00	-1.01968827874E+02	-5.95342132925E+00	-1.01958683498E+02	-3.93518161564E+01	7.63355647870E+01
3.40857400000E+09	-3.52573372445E+01	-3.86770877662E+01	-5.96362523269E+00	-1.02219553112E+02	-5.96447573200E+00	-1.02209981874E+02	-3.94313187798E+01	7.60901546546E+01
3.41657300000E+09	-3.52499501858E+01	-3.86096053060E+01	-5.97176979658E+00	-1.02473126909E+02	-5.97278318648E+00	-1.02420047072E+02	-3.94390251990E+01	7.62887779272E+01
3.42457200000E+09	-3.52273637970E+01	-3.89550644396E+01	-5.97856247100E+00	-1.02671965807E+02	-5.98007095129E+00	-1.02621178610E+02	-3.94522022273E+01	7.57424812618E+01
3.43257100000E+09	-3.52420096953E+01	-3.91466613415E+01	-5.98389518605E+00	-1.02870778425E+02	-5.98608082982E+00	-1.02792588095E+02	-3.95141155813E+01	7.62555155033E+01
3.44057000000E+09	-3.52332294153E+01	-3.91264841570E+01	-5.98689035873E+00	-1.03021502027E+02	-5.98612617088E+00	-1.02961154426E+02	-3.94772134230E+01	7.61412946998E+01
3.44856900000E+09	-3.52641235944E+01	-3.90516927321E+01	-5.98574665083E+00	-1.03203053931E+02	-5.97957693759E+00	-1.03150459747E+02	-3.93864963208E+01	7.60825168467E+01
3.45656800000E+09	-3.52494649072E+01	-3.88569016770E+01	-5.97998593319E+00	-1.03394840976E+02	-5.97468780603E+00	-1.03337176962E+02	-3.93213762181E+01	7.54105899744E+01
3.46456700000E+09	-3.51998026680E+01	-3.89935980560E+01	-5.97075845844E+00	-1.03595640371E+02	-5.96100282769E+00	-1.03563042520E+02	-3.92490964372E+01	7.52088256458E+01
3.47256600000E+09	-3.51722505455E+01	-3.89943812870E+01	-5.96114205372E+00	-1.03825421488E+02	-5.94938503213E+00	-1.03813217784E+02	-3.92308823075E+01	7.46360947098E+01
3.48056500000E+09	-3.51764748811E+01	-3.91268850533E+01	-5.95056408183E+00	-1.04087305393E+02	-5.94137382791E+00	-1.04086066726E+02	-3.92401682056E+01	7.41511422332E+01
3.48856400000E+09	-3.51568907710E+01	-3.91940522775E+01	-5.94212326470E+00	-1.04381359973E+02	-5.93682650935E+00	-1.04387370175E+02	-3.91157622540E+01	7.43246410462E+01
3.49656300000E+09	-3.51821309936E+01	-3.91574109374E+01	-5.93828646946E+00	-1.04684695460E+02	-5.93569082291E+00	-1.04710180838E+02	-3.90178537826E+01	7.38529193835E+01
3.50456200000E+09	-3.51709031404E+01	-3.91057718371E+01	-5.93659118726E+00	-1.04986408556E+02	-5.93944417825E+00	-1.04989645017E+02	-3.88825809124E+01	7.37606882365E+01
3.51256100000E+09	-3.51103753991E+01	-3.90764476399E+01	-5.94238943026E+00	-1.05288470307E+02	-5.94691697034E+00	-1.05295045675E+02	-3.88266223396E+01	7.30437217223E+01
3.52056000000E+09	-3.50966421203E+01	-3.91801784158E+01	-5.95062296372E+00	-1.05567260740E+02	-5.95646077262E+00	-1.05548208165E+02	-3.87954574020E+01	7.25010195364E+01
3.52855900000E+09	-3.50717395834E+01	-3.91741803283E+01	-5.96084409545E+00	-1.05839265968E+02	-5.96538662903E+00	-1.05790797527E+02	-3.87338427824E+01	7.22843364303E+01
3.53655800000E+09	-3.50775570979E+01	-3.94002076853E+01	-5.97126263473E+00	-1.06056534852E+02	-5.97672264319E+00	-1.05995640262E+02	-3.87536462621E+01	7.25679626924E+01
3.54455700000E+09	-3.50579213217E+01	-3.95254689790E+01	-5.97834963480E+00	-1.06257657060E+02	-5.98202469289E+00	-1.06177891953E+02	-3.87739196224E+01	7.27205923377E+01
3.55255600000E+09	-3.50683090249E+01	-3.96715676868E+01	-5.98354155270E+00	-1.06444397232E+02	-5.98307982881E+00	-1.06353822758E+02	-3.87101210055E+01	7.29532375807E+01
3.56055500000E+09	-3.50767801757E+01	-3.97493966678E+01	-5.98320127649E+00	-1.06629526174E+02	-5.97869517658E+00	-1.06535144987E+02	-3.87037278142E+01	7.29125882508E+01
3.56855400000E+09	-3.50953142518E+01	-3.97312936828E+01	-5.97880768672E+00	-1.06820063720E+02	-5.97309035918E+00	-1.06735811713E+02	-3.86441604591E+01	7.30086895674E+01
3.57655300000E+09	-3.50434567166E+01	-3.96374129493E+01	-5.97222330261E+00	-1.07029463011E+02	-5.96327334520E+00	-1.06975935644E+02	-3.86336636107E+01	7.28772845871E+01
3.58455200000E+09	-3.50388929532E+01	-3.98680615962E+01	-5.96339613300E+00	-1.07270543824E+02	-5.95743071989E+00	-1.07219563160E+02	-3.87021825156E+01	7.27657391034E+01
3.59255100000E+09	-3.50218509209E+01	-3.99512662437E+01	-5.95771796818E+00	-1.07531327447E+02	-5.95044762455E+00	-1.07491156197E+02	-3.86966992227E+01	7.22415038923E+01
3.60055000000E+09	-3.49831896418E+01	-3.99041597307E+01	-5.95389228461E+00	-1.07817315307E+02	-5.94737400416E+00	-1.07785421325E+02	-3.86570321088E+01	7.21743674968E+01
3.60854900000E+09	-3.50101739677E+01	-3.99642408855E+01	-5.95342204392E+00	-1.08095752867E+02	-5.94952105313E+00	-1.08060236779E+02	-3.86530674620E+01	7.16370211850E+01
3.61654800000E+09	-3.49580426176E+01	-4.00658338496E+01	-5.95769612243E+00	-1.08374344549E+02	-5.95407292611E+00	-1.08357078062E+02	-3.86011474489E+01	7.11675413587E+01
3.62454700000E+09	-3.49348076109E+01	-4.01432164092E+01	-5.96545058875E+00	-1.08653634659E+02	-5.96323395314E+00	-1.08619264188E+02	-3.85799659655E+01	7.04175430934E+01
3.63254600000E+09	-3.49339196113E+01	-4.04378295637E+01	-5.97343412238E+00	-1.08890832019E+02	-5.97129066876E+00	-1.08845525985E+02	-3.85168074456E+01	6.97065670342E+01
3.64054500000E+09	-3.49178383964E+01	-4.04671282153E+01	-5.98215656425E+00	-1.09114059025E+02	-5.97939451079E+00	-1.09055092653E+02	-3.84836162473E+01	6.93490670599E+01
3.64854400000E+09	-3.49247157419E+01	-4.04647565767E+01	-5.98693207465E+00	-1.09286893570E+02	-5.98344143032E+00	-1.09242488924E+02	-3.84517824552E+01	6.91537564710E+01
3.65654300000E+09	-3.49264526643E+01	-4.06127246501E+01	-5.99203613781E+00	-1.09465286165E+02	-5.98266238303E+00	-1.09421153785E+02	-3.83315227248E+01	6.90956789694E+01
3.66454200000E+09	-3.49163839300E+01	-4.04720352658E+01	-5.98708894167E+00	-1.09653445213E+02	-5.97821354856E+00	-1.09612832513E+02	-3.82706616973E+01	6.89625618738E+01
3.67254100000E+09	-3.49123555352E+01	-4.05637114122E+01	-5.97862148002E+00	-1.09836565412E+02	-5.97003989879E+00	-1.09793591440E+02	-3.81114450686E+01	6.84386082937E+01
3.68054000000E+09	-3.49101171149E+01	-4.07202361706E+01	-5.96778031582E+00	-1.10052449823E+02	-5.96094543667E+00	-1.10027051844E+02	-3.80822779436E+01	6.83509609199E+01
3.68853900000E+09	-3.48628094417E+01	-4.07216011356E+01	-5.95811556013E+00	-1.10302017397E+02	-5.95018411796E+00	-1.10301720450E+02	-3.80268199439E+01	6.86702753528E+01
3.69653800000E+09	-3.48619411223E+01	-4.07666053344E+01	-5.94576901351E+00	-1.10575619951E+02	-5.94229713063E+00	-1.10606119478E+02	-3.79108986113E+01	6.88658722471E+01
3.70453700000E+09	-3.48784263169E+01	-4.09351078787E+01	-5.94096297286E+00	-1.10891890705E+02	-5.94060797225E+00	-1.10901367731E+02	-3.78825592597E+01	6.86457961232E+01
3.71253600000E+09	-3.48449802406E+01	-4.09964464397E+01	-5.94025029806E+00	-1.11207612251E+02	-5.94259641162E+00	-1.11210344073E+02	-3.77958421796E+01	6.90273802765E+01
3.72053500000E+09	-3.48422361241E+01	-4.09879242853E+01	-5.94255554884E+00	-1.11533915372E+02	-5.94970750274E+00	-1.11525137039E+02	-3.78025769229E+01	6.86678701131E+01
3.72853400000E+09	-3.48064123882E+01	-4.10170216678E+01	-5.95336534665E+00	-1.11841829353E+02	-5.95935347652E+00	-1.11791988253E+02	-3.77857155295E+01	6.83479089405E+01
3.73653300000E+09	-3.47389934733E+01	-4.12792235837E+01	-5.96699761047E+00	-1.12109430190E+02	-5.97334238510E+00	-1.12049551647E+02	-3.78814954194E+01	6.81562935499E+01
3.74453200000E+09	-3.47462469523E+01	-4.18058477628E+01	-5.98174217054E+00	-1.12346095407E+02	-5.98488762205E+00	-1.12256120612E+02	-3.79863538497E+01	6.83120909400E+01
3.75253100000E+09	-3.47428737100E+01	-4.21722644409E+01	-5.99513013206E+00	-1.12547958399E+02	-5.99424940643E+00	-1.12428716953E+02	-3.80258044502E+01	6.85419690607E+01
3.76053000000E+09	-3.48224275714E+01	-4.22718147492E+01	-6.00300565829E+00	-1.12714206554E+02	-5.99928323805E+00	-1.12592209938E+02	-3.80197083043E+01	6.86435015000E+01
3.76852900000E+09	-3.48062217274E+01	-4.21764498164E+01	-6.00813050189E+00	-1.12856833226E+02	-5.99862883986E+00	-1.12756340415E+02	-3.80033646267E+01	6.86033933947E+01
3.77652800000E+09	-3.48211826234E+01	-4.17847773417E+01	-6.00709356988E+00	-1.12997358230E+02	-5.99226672099E+00	-1.12903500463E+02	-3.79644167967E+01	6.82663878765E+01
3.78452700000E+09	-3.47291711020E+01	-4.19073133938E+01	-5.99735479463E+00	-1.13150521549E+02	-5.98071672804E+00	-1.13102514722E+02	-3.79147481798E+01	6.80181220657E+01
3.79252600000E+09	-3.47026417448E+01	-4.19600070049E+01	-5.98354491897E+00	-1.13339113941E+02	-5.96811405412E+00	-1.13324727842E+02	-3.78745695765E+01	6.71859387136E+01
3.80052500000E+09	-3.46727169754E+01	-4.20982526687E+01	-5.97003062427E+00	-1.13577972057E+02	-5.95654052237E+00	-1.13583039767E+02	-3.78645387858E+01	6.64525378535E+01
3.80852400000E+09	-3.46680055080E+01	-4.24327883955E+01	-5.95857515027E+00	-1.13838428309E+02	-5.94692155113E+00	-1.13868981220E+02	-3.78817330701E+01	6.61417063271E+01
3.81652300000E+09	-3.46831368672E+01	-4.23948809768E+01	-5.94821614436E+00	-1.14146958620E+02	-5.94422394508E+00	-1.14193397862E+02	-3.77372981421E+01	6.59535109411E+01
3.82452200000E+09	-3.46536452837E+01	-4.24371827241E+01	-5.94303978259E+00	-1.14474939975E+02	-5.94451063703E+00	-1.14514688765E+02	-3.76712908124E+01	6.52579160671E+01
3.83252100000E+09	-3.46318729469E+01	-4.23070463416E+01	-5.94657336614E+00	-1.14806095659E+02	-5.95075493747E+00	-1.14818834441E+02	-3.75677461687E+01	6.51296444020E+01
3.84052000000E+09	-3.45964808370E+01	-4.24842491829E+01	-5.95218809052E+00	-1.15099835786E+02	-5.95896211496E+00	-1.15086994419E+02	-3.74644992931E+01	6.46438287846E+01
3.84851900000E+09	-3.45735718635E+01	-4.27105046121E+01	-5.96190766303E+00	-1.15378590673E+02	-5.97166432563E+00	-1.15343697578E+02	-3.74759011847E+01	6.45609588812E+01
3.85651800000E+09	-3.45673676579E+01	-4.30796863661E+01	-5.97405536027E+00	-1.15630869353E+02	-5.98360730292E+00	-1.15541254749E+02	-3.74710856617E+01	6.41383560290E+01
3.86451700000E+09	-3.45874177573E+01	-4.31788920548E+01	-5.98546773319E+00	-1.15835655842E+02	-5.98903317979E+00	-1.15715572912E+02	-3.74011840086E+01	6.47395251115E+01
3.87251600000E+09	-3.45853620978E+01	-4.32003728350E+01	-5.99257715749E+00	-1.16035139352E+02	-5.99225898139E+00	-1.15902844435E+02	-3.74159532844E+01	6.50425705624E+01
3.88051500000E+09	-3.46105422593E+01	-4.33090785321E+01	-5.99597144215E+00	-1.16204336617E+02	-5.98808487007E+00	-1.16060542876E+02	-3.73226460935E+01	6.52541438670E+01
3.88851400000E+09	-3.45746453094E+01	-4.33592489151E+01	-5.99139189136E+00	-1.16376793930E+02	-5.98275668773E+00	-1.16263297211E+02	-3.73194991588E+01	6.52228606110E+01
3.89651300000E+09	-3.45394495022E+01	-4.32531483689E+01	-5.98339997195E+00	-1.16570900377E+02	-5.97268318228E+00	-1.16486012643E+02	-3.72617934204E+01	6.53627089994E+01
3.90451200000E+09	-3.45375029183E+01	-4.37040520621E+01	-5.97693253507E+00	-1.16790661351E+02	-5.96081663297E+00	-1.16723057309E+02	-3.72938359095E+01	6.52512477063E+01
3.91251100000E+09	-3.45305051299E+01	-4.36357212351E+01	-5.96453953506E+00	-1.17043986134E+02	-5.95169378031E+00	-1.17003217052E+02	-3.73199469659E+01	6.49320483349E+01
3.92051000000E+09	-3.45006591635E+01	-4.37544312690E+01	-5.96179946833E+00	-1.17332747885E+02	-5.94880545851E+00	-1.17323713839E+02	-3.73240183945E+01	6.47859486719E+01
3.92850900000E+09	-3.44872457638E+01	-4.37210284716E+01	-5.95533925180E+00	-1.17631108304E+02	-5.95001475483E+00	-1.17636826306E+02	-3.72906916783E+01	6.47192559260E+01
3.93650800000E+09	-3.44506565734E+01	-4.37463973484E+01	-5.96319859056E+00	-1.17942931345E+02	-5.95595404702E+00	-1.17935862798E+02	-3.73527310256E+01	6.38978927692E+01
3.94450700000E+09	-3.44263066147E+01	-4.38509007116E+01	-5.96388803294E+00	-1.18234778473E+02	-5.96609083726E+00	-1.18200808221E+02	-3.73632991507E+01	6.34766167922E+01
3.95250600000E+09	-3.44246626159E+01	-4.42424977722E+01	-5.98057472875E+00	-1.18479450668E+02	-5.97840147520E+00	-1.18452316017E+02	-3.73680891765E+01	6.31103262100E+01
3.96050500000E+09	-3.43992714853E+01	-4.44479000052E+01	-5.98589284347E+00	-1.18705489487E+02	-5.99266317091E+00	-1.18664087498E+02	-3.74141155388E+01	6.29708742440E+01
3.96850400000E+09	-3.44187490943E+01	-4.46903685937E+01	-6.00156612088E+00	-1.18894658038E+02	-5.99947340888E+00	-1.18835073227E+02	-3.73533667560E+01	6.31307850117E+01
3.97650300000E+09	-3.44053213552E+01	-4.47853610375E+01	-6.00234965333E+00	-1.19066463146E+02	-6.00112054893E+00	-1.18991239632E+02	-3.72818116950E+01	6.29689056750E+01
3.98450200000E+09	-3.44473589395E+01	-4.42934186205E+01	-6.00540907060E+00	-1.19222008139E+02	-6.00062277028E+00	-1.19130634210E+02	-3.71896613201E+01	6.26334332346E+01
3.99250100000E+09	-3.44004974251E+01	-4.45420131429E+01	-5.99777654506E+00	-1.19382159777E+02	-5.99284107931E+00	-1.19308841894E+02	-3.70509146006E+01	6.22598623690E+01
4.00050000000E+09	-3.43262677994E+01	-4.46433276297E+01	-5.98584777926E+00	-1.19560429272E+02	-5.98011370032E+00	-1.19490505084E+02	-3.70200137939E+01	6.19454517192E+01
4.00849900000E+09	-3.42936595166E+01	-4.47880678590E+01	-5.97023218019E+00	-1.19768465112E+02	-5.96503595414E+00	-1.19730293426E+02	-3.69956069211E+01	6.16663925443E+01
4.01649800000E+09	-3.43032323909E+01	-4.53990443538E+01	-5.95877546386E+00	-1.20036058274E+02	-5.95148029177E+00	-1.20011918005E+02	-3.70013151317E+01	6.13358735212E+01
4.02449700000E+09	-3.42711612430E+01	-4.53927389917E+01	-5.94579437070E+00	-1.20337178055E+02	-5.94076381299E+00	-1.20334105665E+02	-3.69145474406E+01	6.19577729175E+01
4.03249600000E+09	-3.42644570148E+01	-4.54139286005E+01	-5.93726383632E+00	-1.20675448354E+02	-5.93619503635E+00	-1.20679788521E+02	-3.68272992764E+01	6.21419914486E+01
4.04049500000E+09	-3.42617845553E+01	-4.51477214585E+01	-5.93782658569E+00	-1.21011302644E+02	-5.93920550273E+00	-1.21001210315E+02	-3.67541455564E+01	6.19082043996E+01
4.04849400000E+09	-3.42044050982E+01	-4.51478324746E+01	-5.94187793423E+00	-1.21350605039E+02	-5.94743046609E+00	-1.21344301049E+02	-3.67474251109E+01	6.18799578658E+01
4.05649300000E+09	-3.41215626299E+01	-4.55480272001E+01	-5.95510530295E+00	-1.21676973896E+02	-5.96263280877E+00	-1.21624511016E+02	-3.67917612823E+01	6.14799300597E+01
4.06449200000E+09	-3.41060338108E+01	-4.57663375410E+01	-5.96916574915E+00	-1.21963672062E+02	-5.98009258119E+00	-1.21878148433E+02	-3.68808470818E+01	6.09199216906E+01
4.07249100000E+09	-3.40711623391E+01	-4.61300287223E+01	-5.98682895027E+00	-1.22180608812E+02	-5.99592753153E+00	-1.22096554403E+02	-3.69479645553E+01	6.09944051094E+01
4.08049000000E+09	-3.41205222705E+01	-4.61771441648E+01	-6.00307368965E+00	-1.22368208568E+02	-6.00799335146E+00	-1.22253619518E+02	-3.70498388397E+01	6.16162798820E+01
4.08848900000E+09	-3.41579026202E+01	-4.59634623637E+01	-6.01459195298E+00	-1.22524368127E+02	-6.01395563022E+00	-1.22403961912E+02	-3.69519134423E+01	6.25064562919E+01
4.09648800000E+09	-3.41183405938E+01	-4.56191257573E+01	-6.01689786399E+00	-1.22658333955E+02	-6.01322457687E+00	-1.22532550940E+02	-3.68511164015E+01	6.22651639623E+01
4.10448700000E+09	-3.41345662197E+01	-4.55040416405E+01	-6.01336130470E+00	-1.22794693216E+02	-6.00594137666E+00	-1.22666285497E+02	-3.68822039150E+01	6.17147319078E+01
4.11248600000E+09	-3.40751716560E+01	-4.53904810544E+01	-6.00207134322E+00	-1.22946643778E+02	-5.99546161168E+00	-1.22855150109E+02	-3.67651388569E+01	6.12727027781E+01
4.12048500000E+09	-3.40224687746E+01	-4.55274411813E+01	-5.99219859295E+00	-1.23138265968E+02	-5.98041168157E+00	-1.23059310099E+02	-3.67639317040E+01	6.03709542345E+01
4.12848400000E+09	-3.40059887687E+01	-4.55351001880E+01	-5.97405695217E+00	-1.23366296065E+02	-5.96859812886E+00	-1.23328892826E+02	-3.68041716519E+01	5.98272513908E+01
4.13648300000E+09	-3.40095206268E+01	-4.56048251674E+01	-5.96355881064E+00	-1.23653196278E+02	-5.95677607732E+00	-1.23620607717E+02	-3.67742265365E+01	5.95843655572E+01
4.14448200000E+09	-3.40168951577E+01	-4.58783793185E+01	-5.95379804806E+00	-1.23955800053E+02	-5.95187809203E+00	-1.23934989201E+02	-3.67079708965E+01	5.93199788078E+01
4.15248100000E+09	-3.40063355015E+01	-4.56684124409E+01	-5.94693465489E+00	-1.24265640130E+02	-5.95237879147E+00	-1.24271086117E+02	-3.66059864919E+01	5.93553019245E+01
4.16048000000E+09	-3.40069922457E+01	-4.57956755313E+01	-5.95446289298E+00	-1.24606161059E+02	-5.95924239916E+00	-1.24577798217E+02	-3.65248388201E+01	5.91904299758E+01
4.16847900000E+09	-3.39795512879E+01	-4.58195417275E+01	-5.95922987248E+00	-1.24905141065E+02	-5.96415977518E+00	-1.24849675947E+02	-3.65500451113E+01	5.90161235050E+01
4.17647800000E+09	-3.39515131120E+01	-4.58169529420E+01	-5.97112976922E+00	-1.25177990440E+02	-5.97656483555E+00	-1.25103416277E+02	-3.65063005137E+01	5.89711602459E+01
4.18447700000E+09	-3.39761833009E+01	-4.61308324868E+01	-5.98210428722E+00	-1.25413921119E+02	-5.98540561364E+00	-1.25303936814E+02	-3.65709384442E+01	5.90045658295E+01
4.19247600000E+09	-3.39742196918E+01	-4.62593024993E+01	-5.99140182927E+00	-1.25620736421E+02	-5.99191752175E+00	-1.25502442201E+02	-3.64822478201E+01	5.96792324571E+01
4.20047500000E+09	-3.40302984242E+01	-4.62239176465E+01	-5.99634783473E+00	-1.25810970715E+02	-5.99397625952E+00	-1.25676043037E+02	-3.65104954301E+01	5.99606819426E+01
4.20847400000E+09	-3.39900976180E+01	-4.63259623655E+01	-5.99509819866E+00	-1.25970622316E+02	-5.99159453126E+00	-1.25852706572E+02	-3.64204029443E+01	5.98446565189E+01
4.21647300000E+09	-3.39440434866E+01	-4.63018234103E+01	-5.99215767761E+00	-1.26155060420E+02	-5.98624520035E+00	-1.26043786149E+02	-3.63800037537E+01	5.97000334623E+01
4.22447200000E+09	-3.39608695427E+01	-4.61289581098E+01	-5.98361428623E+00	-1.26361145037E+02	-5.97697114558E+00	-1.26275236831E+02	-3.64552844959E+01	5.98755247593E+01
4.23247100000E+09	-3.39397126760E+01	-4.63846199943E+01	-5.97586250494E+00	-1.26603836232E+02	-5.96670656763E+00	-1.26535130126E+02	-3.64679465794E+01	5.98472629647E+01
4.24047000000E+09	-3.39311739945E+01	-4.62969596585E+01	-5.96673122030E+00	-1.26869626922E+02	-5.96187626547E+00	-1.26828241647E+02	-3.65408573085E+01	5.97160225705E+01
4.24846900000E+09	-3.39267127275E+01	-4.62679876356E+01	-5.96121111914E+00	-1.27162294793E+02	-5.95792538762E+00	-1.27123608639E+02	-3.64910173344E+01	5.93792869437E+01
4.25646800000E+09	-3.38904962922E+01	-4.63752172597E+01	-5.96105378646E+00	-1.27481977126E+02	-5.96335493395E+00	-1.27424645313E+02	-3.64991505601E+01	5.87132720459E+01
4.26446700000E+09	-3.39141673886E+01	-4.62558243927E+01	-5.96598549860E+00	-1.27775852367E+02	-5.96708048970E+00	-1.27725777187E+02	-3.65416322264E+01	5.81369167890E+01
4.27246600000E+09	-3.38751383411E+01	-4.65695304220E+01	-5.97274142223E+00	-1.28046127184E+02	-5.97953215560E+00	-1.27974212463E+02	-3.65602657470E+01	5.80233954208E+01
4.28046500000E+09	-3.38625926078E+01	-4.63920558627E+01	-5.98731656906E+00	-1.28323822165E+02	-5.99119477415E+00	-1.28230601224E+02	-3.65730293125E+01	5.77337590801E+01
4.28846400000E+09	-3.39012376593E+01	-4.67061449682E+01	-5.99636228734E+00	-1.28531568146E+02	-6.00012108858E+00	-1.28405492122E+02	-3.66071989869E+01	5.76670502804E+01
4.29646300000E+09	-3.39393183286E+01	-4.64666865347E+01	-6.00535498077E+00	-1.28711562464E+02	-6.00518573194E+00	-1.28590595696E+02	-3.64915816168E+01	5.78787838232E+01
4.30446200000E+09	-3.39758234585E+01	-4.65265293124E+01	-6.01172481097E+00	-1.28877112365E+02	-6.00893761364E+00	-1.28754246269E+02	-3.64435514989E+01	5.76399217029E+01
4.31246100000E+09	-3.39786372113E+01	-4.63302480345E+01	-6.01026693100E+00	-1.29025677363E+02	-6.00279803255E+00	-1.28895579208E+02	-3.63066283906E+01	5.76280195564E+01
4.32046000000E+09	-3.39743166063E+01	-4.63473774215E+01	-6.00415543410E+00	-1.29193134230E+02	-5.99416611228E+00	-1.29070574212E+02	-3.62258596390E+01	5.71489674697E+01
4.32845900000E+09	-3.39457501672E+01	-4.66657240908E+01	-5.99214806319E+00	-1.29362095457E+02	-5.98271854399E+00	-1.29283636731E+02	-3.62016818090E+01	5.68824981529E+01
4.33645800000E+09	-3.39624604757E+01	-4.69181589601E+01	-5.97779913300E+00	-1.29585974940E+02	-5.96890407485E+00	-1.29533858219E+02	-3.61989300526E+01	5.66045282531E+01
4.34445700000E+09	-3.39958520718E+01	-4.72457907531E+01	-5.96150933488E+00	-1.29849179406E+02	-5.95599283689E+00	-1.29828101311E+02	-3.61490784395E+01	5.73265867138E+01
4.35245600000E+09	-3.40291041902E+01	-4.73960651493E+01	-5.95186300523E+00	-1.30153950028E+02	-5.94839104704E+00	-1.30136981324E+02	-3.60533646259E+01	5.73832551683E+01
4.36045500000E+09	-3.40269249818E+01	-4.72321235119E+01	-5.94549022682E+00	-1.30478384309E+02	-5.94794396385E+00	-1.30469605859E+02	-3.60583902459E+01	5.72552176275E+01
4.36845400000E+09	-3.40020768358E+01	-4.75576717603E+01	-5.94599326148E+00	-1.30820966918E+02	-5.95239356986E+00	-1.30791579004E+02	-3.59838203515E+01	5.73994734706E+01
4.37645300000E+09	-3.39581278916E+01	-4.76129643266E+01	-5.95108119300E+00	-1.31155380179E+02	-5.95988218316E+00	-1.31121186482E+02	-3.60039393179E+01	5.73403223190E+01
4.38445200000E+09	-3.39496667958E+01	-4.78953502088E+01	-5.96317675645E+00	-1.31459803070E+02	-5.97484520289E+00	-1.31389086564E+02	-3.60447150252E+01	5.69158558231E+01
4.39245100000E+09	-3.39300756508E+01	-4.84388482548E+01	-5.97843371080E+00	-1.31725331063E+02	-5.98870029107E+00	-1.31628829670E+02	-3.61378996191E+01	5.73310834550E+01
4.40045000000E+09	-3.39463237557E+01	-4.88736350467E+01	-5.99587286914E+00	-1.31956158240E+02	-5.99832615942E+00	-1.31818140500E+02	-3.62181805905E+01	5.76813758717E+01
4.40844900000E+09	-3.39699074843E+01	-4.88601070541E+01	-6.00560509034E+00	-1.32158422170E+02	-6.00873358585E+00	-1.31984834368E+02	-3.62125611828E+01	5.79185433678E+01
4.41644800000E+09	-3.40178197562E+01	-4.87602630120E+01	-6.01502715590E+00	-1.32296025408E+02	-6.01188184170E+00	-1.32131731278E+02	-3.61540718492E+01	5.82149180481E+01
4.42444700000E+09	-3.39616755511E+01	-4.84757606927E+01	-6.01956778588E+00	-1.32442365667E+02	-6.00809520485E+00	-1.32282298727E+02	-3.61367375145E+01	5.80684226305E+01
4.43244600000E+09	-3.39877725657E+01	-4.83939163558E+01	-6.01464132173E+00	-1.32596280793E+02	-6.00007614699E+00	-1.32458364593E+02	-3.61027848638E+01	5.74893246319E+01
4.44044500000E+09	-3.39278392606E+01	-4.85113881058E+01	-6.00488711697E+00	-1.32761799013E+02	-5.98864695156E+00	-1.32658975443E+02	-3.60627516721E+01	5.71943460748E+01
4.44844400000E+09	-3.39218806618E+01	-4.87785095810E+01	-5.99411662310E+00	-1.32954553399E+02	-5.97424621999E+00	-1.32898464417E+02	-3.60713128934E+01	5.64139888582E+01
4.45644300000E+09	-3.39077817612E+01	-4.89458179795E+01	-5.98101655207E+00	-1.33188880336E+02	-5.96437601145E+00	-1.33180274437E+02	-3.60786086138E+01	5.63333585023E+01
4.46444200000E+09	-3.39409535316E+01	-4.91982431721E+01	-5.96669832828E+00	-1.33446754654E+02	-5.95648491020E+00	-1.33490394317E+02	-3.60501154249E+01	5.59896056393E+01
4.47244100000E+09	-3.39677463036E+01	-4.91194067873E+01	-5.95842448083E+00	-1.33770272900E+02	-5.95351245856E+00	-1.33798066052E+02	-3.60164640835E+01	5.60883982249E+01
4.48044000000E+09	-3.39353281543E+01	-4.93453939831E+01	-5.95616417982E+00	-1.34072158974E+02	-5.95986508801E+00	-1.34107946669E+02	-3.59541578262E+01	5.56515592822E+01
4.48843900000E+09	-3.39429124698E+01	-4.95798262130E+01	-5.95978089726E+00	-1.34394457511E+02	-5.96666436225E+00	-1.34399232195E+02	-3.59052409053E+01	5.58705679188E+01
4.49643800000E+09	-3.39216717801E+01	-4.97185596951E+01	-5.96548757972E+00	-1.34701993031E+02	-5.97709495608E+00	-1.34681073779E+02	-3.58902448085E+01	5.55275729217E+01
4.50443700000E+09	-3.39296511366E+01	-5.02851704457E+01	-5.97633264069E+00	-1.34976895294E+02	-5.98705666564E+00	-1.34897691618E+02	-3.59024304115E+01	5.55760843814E+01
4.51243600000E+09	-3.39688470667E+01	-5.03579404962E+01	-5.98317959252E+00	-1.35204920165E+02	-5.99698135003E+00	-1.35102551343E+02	-3.58879849548E+01	5.59639326335E+01
4.52043500000E+09	-3.39410992789E+01	-5.05482187715E+01	-5.99612740847E+00	-1.35422027621E+02	-6.00027612315E+00	-1.35279481711E+02	-3.58767574899E+01	5.64372961039E+01
4.52843400000E+09	-3.39264334380E+01	-5.06299709981E+01	-6.00440933613E+00	-1.35608627239E+02	-6.00141353715E+00	-1.35461551170E+02	-3.58350318364E+01	5.68590086524E+01
4.53643300000E+09	-3.39119973408E+01	-5.06440208102E+01	-6.00483349777E+00	-1.35793629780E+02	-5.99644359611E+00	-1.35619121733E+02	-3.57428284916E+01	5.66908133359E+01
4.54443200000E+09	-3.38696003343E+01	-5.08416751961E+01	-6.00092880045E+00	-1.35970820845E+02	-5.98756413977E+00	-1.35815163721E+02	-3.57584320083E+01	5.67586393595E+01
4.55243100000E+09	-3.38575371614E+01	-5.08588012887E+01	-5.99207201351E+00	-1.36164548252E+02	-5.97795963503E+00	-1.36052959550E+02	-3.57989723318E+01	5.66955227894E+01
4.56043000000E+09	-3.38557082779E+01	-5.08422344117E+01	-5.98955933534E+00	-1.36375975196E+02	-5.96985222785E+00	-1.36306762239E+02	-3.58278824667E+01	5.67352240342E+01
4.56842900000E+09	-3.38409406018E+01	-5.12084614483E+01	-5.98139872592E+00	-1.36625896406E+02	-5.96329100186E+00	-1.36602173458E+02	-3.57592186812E+01	5.66790657504E+01
4.57642800000E+09	-3.37896282384E+01	-5.12253404395E+01	-5.97073483268E+00	-1.36908323881E+02	-5.96057679136E+00	-1.36900494212E+02	-3.58350702819E+01	5.67522556306E+01
4.58442700000E+09	-3.38018406048E+01	-5.13446548147E+01	-5.97164402921E+00	-1.37201982987E+02	-5.96346120916E+00	-1.37217677542E+02	-3.58220272123E+01	5.65010738473E+01
4.59242600000E+09	-3.37611519474E+01	-5.12149765934E+01	-5.96641885244E+00	-1.37480766453E+02	-5.96978255702E+00	-1.37506585871E+02	-3.58660877662E+01	5.62330713589E+01
4.60042500000E+09	-3.37619712951E+01	-5.13940821302E+01	-5.97686079751E+00	-1.37770194038E+02	-5.97938808776E+00	-1.37764215258E+02	-3.58840556720E+01	5.61300626844E+01
4.60842400000E+09	-3.37355921937E+01	-5.14366535550E+01	-5.97779612812E+00	-1.38030306560E+02	-5.99260291874E+00	-1.38006172489E+02	-3.59260625948E+01	5.59375232150E+01
4.61642300000E+09	-3.37791251989E+01	-5.17215060427E+01	-5.99105692024E+00	-1.38271913161E+02	-6.00233393656E+00	-1.38206458234E+02	-3.58914676603E+01	5.61604935395E+01
4.62442200000E+09	-3.37711296710E+01	-5.15073422493E+01	-5.99331664357E+00	-1.38502611272E+02	-6.00769662131E+00	-1.38381505469E+02	-3.58960078275E+01	5.59894741168E+01
4.63242100000E+09	-3.37924062845E+01	-5.13683780624E+01	-6.00246044695E+00	-1.38703890659E+02	-6.01087479640E+00	-1.38540532030E+02	-3.58232667891E+01	5.60200262949E+01
4.64042000000E+09	-3.37849957129E+01	-5.14442135787E+01	-6.00182763414E+00	-1.38890224075E+02	-6.00822733180E+00	-1.38721322901E+02	-3.57639375161E+01	5.61591017003E+01
4.64841900000E+09	-3.38061347122E+01	-5.14088944703E+01	-6.00213069555E+00	-1.39091585548E+02	-5.99966236393E+00	-1.38899313791E+02	-3.57231910009E+01	5.61265810858E+01
4.65641800000E+09	-3.38108488429E+01	-5.13676269611E+01	-5.99786462376E+00	-1.39287955530E+02	-5.99110977017E+00	-1.39109838166E+02	-3.56671533579E+01	5.57860332499E+01
4.66441700000E+09	-3.38372122111E+01	-5.17961063528E+01	-5.99016460194E+00	-1.39502591125E+02	-5.97783152455E+00	-1.39345792041E+02	-3.57025168135E+01	5.57215808069E+01
4.67241600000E+09	-3.38173924436E+01	-5.17314667379E+01	-5.98466656724E+00	-1.39746495728E+02	-5.96831780738E+00	-1.39603512358E+02	-3.56683890983E+01	5.58918496921E+01
4.68041500000E+09	-3.38468146527E+01	-5.18807245106E+01	-5.97698569378E+00	-1.40008962776E+02	-5.96143076658E+00	-1.39900187345E+02	-3.56631186987E+01	5.60492330456E+01
4.68841400000E+09	-3.38599813197E+01	-5.19335351930E+01	-5.97698638821E+00	-1.40279940948E+02	-5.96104402180E+00	-1.40207284792E+02	-3.56398223659E+01	5.60295213205E+01
4.69641300000E+09	-3.38135926222E+01	-5.23310647123E+01	-5.97388199986E+00	-1.40548456485E+02	-5.96324467967E+00	-1.40519943759E+02	-3.56800951815E+01	5.61513538774E+01
4.70441200000E+09	-3.38358249952E+01	-5.25387492393E+01	-5.97625080468E+00	-1.40834073328E+02	-5.97008820031E+00	-1.40799687540E+02	-3.56812666633E+01	5.60432747688E+01
4.71241100000E+09	-3.38248665947E+01	-5.24940175684E+01	-5.97853008757E+00	-1.41094925131E+02	-5.97811684298E+00	-1.41075830428E+02	-3.57202891669E+01	5.60229423727E+01
4.72041000000E+09	-3.38245121241E+01	-5.27118204502E+01	-5.98273886668E+00	-1.41340121526E+02	-5.98714294788E+00	-1.41302910103E+02	-3.57421104388E+01	5.63201694647E+01
4.72840900000E+09	-3.38327787957E+01	-5.28989891643E+01	-5.98954370368E+00	-1.41572441932E+02	-5.99463873155E+00	-1.41535102008E+02	-3.57634066846E+01	5.63787722771E+01
4.73640800000E+09	-3.38647877830E+01	-5.29404195529E+01	-5.99217358903E+00	-1.41797425428E+02	-6.00041931804E+00	-1.41722989462E+02	-3.57646335048E+01	5.63356541756E+01
4.74440700000E+09	-3.38392927704E+01	-5.30903448140E+01	-5.99409162131E+00	-1.42018084759E+02	-6.00379939000E+00	-1.41903962308E+02	-3.57427081361E+01	5.62621868024E+01
4.75240600000E+09	-3.38654033274E+01	-5.28353460322E+01	-5.99065516313E+00	-1.42231348862E+02	-6.00151289212E+00	-1.42083746926E+02	-3.57327656244E+01	5.59829654501E+01
4.76040500000E+09	-3.38705881716E+01	-5.31693752771E+01	-5.98975443895E+00	-1.42461190838E+02	-5.99582884771E+00	-1.42281481712E+02	-3.57585654278E+01	5.58483828868E+01
4.76840400000E+09	-3.38693583138E+01	-5.32432420439E+01	-5.98703007891E+00	-1.42702539567E+02	-5.98945476556E+00	-1.42491127583E+02	-3.56865644677E+01	5.52865865218E+01
4.77640300000E+09	-3.38498376185E+01	-5.32008648554E+01	-5.98558371312E+00	-1.42952604267E+02	-5.98272486344E+00	-1.42740665655E+02	-3.57055487367E+01	5.49832324786E+01
4.78440200000E+09	-3.38743215412E+01	-5.31498215591E+01	-5.98178097382E+00	-1.43213631838E+02	-5.97619437458E+00	-1.42997462572E+02	-3.56913357689E+01	5.48603581553E+01
4.79240100000E+09	-3.38594725979E+01	-5.33718857218E+01	-5.98387677138E+00	-1.43487257305E+02	-5.97245850842E+00	-1.43276731763E+02	-3.56267746782E+01	5.50470739478E+01
4.80040000000E+09	-3.38871210840E+01	-5.35930371312E+01	-5.98332175895E+00	-1.43745508028E+02	-5.97416201862E+00	-1.43560705948E+02	-3.55802748586E+01	5.46399769567E+01
4.80839900000E+09	-3.39061346143E+01	-5.37940891526E+01	-5.98901396675E+00	-1.43985877834E+02	-5.97440618210E+00	-1.43841887943E+02	-3.55049377477E+01	5.47445782369E+01
4.81639800000E+09	-3.39114299184E+01	-5.41285803801E+01	-5.99474927085E+00	-1.44240443437E+02	-5.98042927679E+00	-1.44096410010E+02	-3.55039950331E+01	5.47897486544E+01
4.82439700000E+09	-3.39216659391E+01	-5.44083431602E+01	-6.00081658661E+00	-1.44461709048E+02	-5.98553622713E+00	-1.44344030767E+02	-3.54576027969E+01	5.51011435282E+01
4.83239600000E+09	-3.39235368048E+01	-5.46760870692E+01	-6.00505104005E+00	-1.44668165892E+02	-5.99138283777E+00	-1.44562897789E+02	-3.54253831366E+01	5.52243036137E+01
4.84039500000E+09	-3.38931919057E+01	-5.46377171393E+01	-6.00605635874E+00	-1.44852838485E+02	-5.99741475551E+00	-1.44763450530E+02	-3.53425426107E+01	5.54081590523E+01
4.84839400000E+09	-3.39005362820E+01	-5.50475556835E+01	-6.00697055300E+00	-1.45054721978E+02	-5.99567798983E+00	-1.44954683032E+02	-3.53433559041E+01	5.56383957574E+01
4.85639300000E+09	-3.38699590340E+01	-5.52481271391E+01	-6.00030208704E+00	-1.45251462622E+02	-5.99333989055E+00	-1.45166413401E+02	-3.53456941772E+01	5.59308805506E+01
4.86439200000E+09	-3.38324109163E+01	-5.55151029479E+01	-5.99429070440E+00	-1.45460826828E+02	-5.98797975291E+00	-1.45375035075E+02	-3.53674661484E+01	5.59663478003E+01
4.87239100000E+09	-3.37993405861E+01	-5.56715449998E+01	-5.98562598122E+00	-1.45689663341E+02	-5.98206807287E+00	-1.45624082444E+02	-3.53711954390E+01	5.61670616460E+01
4.88039000000E+09	-3.38150819873E+01	-5.58721798480E+01	-5.97823670038E+00	-1.45939903779E+02	-5.97502720926E+00	-1.45865080989E+02	-3.53924658261E+01	5.62795855950E+01
4.88838900000E+09	-3.37710867060E+01	-5.58517707439E+01	-5.96934560548E+00	-1.46221647106E+02	-5.97047319846E+00	-1.46136270731E+02	-3.54098831032E+01	5.63849842088E+01
4.89638800000E+09	-3.37456247167E+01	-5.59411861093E+01	-5.96785658270E+00	-1.46512405180E+02	-5.96784157994E+00	-1.46417932671E+02	-3.54286924052E+01	5.65201295405E+01
4.90438700000E+09	-3.37256759551E+01	-5.57426494953E+01	-5.96711820201E+00	-1.46808844779E+02	-5.97010723647E+00	-1.46705313614E+02	-3.54464419302E+01	5.63216423706E+01
4.91238600000E+09	-3.36871455443E+01	-5.58166992599E+01	-5.97038117899E+00	-1.47117894305E+02	-5.97441892148E+00	-1.46992320535E+02	-3.54931217336E+01	5.61464460114E+01
4.92038500000E+09	-3.37012143928E+01	-5.58294187081E+01	-5.97537993893E+00	-1.47392452509E+02	-5.98278270667E+00	-1.47260075969E+02	-3.55166089462E+01	5.61614228084E+01
4.92838400000E+09	-3.36669761519E+01	-5.57582089929E+01	-5.98392578678E+00	-1.47664795504E+02	-5.98988713206E+00	-1.47489725288E+02	-3.55110460827E+01	5.62804006623E+01
4.93638300000E+09	-3.37066776163E+01	-5.57223998291E+01	-5.99365158574E+00	-1.47904793931E+02	-5.99742394089E+00	-1.47709939906E+02	-3.55377240064E+01	5.63441357025E+01
4.94438200000E+09	-3.37502979029E+01	-5.57821976511E+01	-6.00170942601E+00	-1.48119667362E+02	-6.00275755741E+00	-1.47900751820E+02	-3.55378519039E+01	5.63304463067E+01
4.95238100000E+09	-3.37551328647E+01	-5.53240985780E+01	-6.00868743167E+00	-1.48316206432E+02	-6.00502473476E+00	-1.48079810380E+02	-3.54760055973E+01	5.62264603216E+01
4.96038000000E+09	-3.37588639451E+01	-5.53561385612E+01	-6.01079774453E+00	-1.48501869686E+02	-6.00315739328E+00	-1.48280953350E+02	-3.54097769353E+01	5.61926178414E+01
4.96837900000E+09	-3.37445255478E+01	-5.51548035578E+01	-6.01180328601E+00	-1.48681270763E+02	-5.99733478767E+00	-1.48471105350E+02	-3.54110829081E+01	5.59908587141E+01
4.97637800000E+09	-3.37812752504E+01	-5.53471261463E+01	-6.00978022368E+00	-1.48877064971E+02	-5.99311117436E+00	-1.48683386175E+02	-3.53762452622E+01	5.56294736662E+01
4.98437700000E+09	-3.37913834865E+01	-5.54611718314E+01	-6.00510283285E+00	-1.49082268406E+02	-5.98322922689E+00	-1.48913958951E+02	-3.53350206351E+01	5.57764420051E+01
4.99237600000E+09	-3.38098221906E+01	-5.55279667769E+01	-5.99748882240E+00	-1.49301371258E+02	-5.97530341941E+00	-1.49170270517E+02	-3.53317591074E+01	5.55637462042E+01
5.00037500000E+09	-3.38032367558E+01	-5.58175631219E+01	-5.99125827924E+00	-1.49539727921E+02	-5.96970425270E+00	-1.49456746044E+02	-3.52693196497E+01	5.56695847258E+01
5.00837400000E+09	-3.38281692222E+01	-5.60757121761E+01	-5.98498360661E+00	-1.49792854960E+02	-5.96842008793E+00	-1.49735821455E+02	-3.52784836119E+01	5.57991050408E+01
5.01637300000E+09	-3.38382988507E+01	-5.62345701304E+01	-5.98116868083E+00	-1.50059458210E+02	-5.97093204696E+00	-1.50023884900E+02	-3.52476073959E+01	5.57348343475E+01
5.02437200000E+09	-3.38116474645E+01	-5.64445523009E+01	-5.97910625033E+00	-1.50328588149E+02	-5.97358329621E+00	-1.50293343861E+02	-3.52293716461E+01	5.60379968044E+01
5.03237100000E+09	-3.38155154475E+01	-5.65608774524E+01	-5.97900495324E+00	-1.50598209760E+02	-5.98120853656E+00	-1.50563574900E+02	-3.52121910328E+01	5.60770981385E+01
5.04037000000E+09	-3.37892546636E+01	-5.67401384207E+01	-5.97739506915E+00	-1.50859576451E+02	-5.98674156732E+00	-1.50796231427E+02	-3.51873868442E+01	5.62368496688E+01
5.04836900000E+09	-3.38362471950E+01	-5.69210953290E+01	-5.97982173403E+00	-1.51114330041E+02	-5.99282926149E+00	-1.51016025646E+02	-3.51927408762E+01	5.62320433230E+01
5.05636800000E+09	-3.38165460241E+01	-5.68548903589E+01	-5.98394652764E+00	-1.51362509500E+02	-5.99777182790E+00	-1.51228791461E+02	-3.51818457237E+01	5.66003674651E+01
5.06436700000E+09	-3.38124817837E+01	-5.68166033319E+01	-5.98509842819E+00	-1.51614361203E+02	-5.99987751028E+00	-1.51410550065E+02	-3.51645186617E+01	5.66956517493E+01
5.07236600000E+09	-3.38376462305E+01	-5.68380873422E+01	-5.98463012433E+00	-1.51845659928E+02	-5.99724341255E+00	-1.51628383645E+02	-3.51652564823E+01	5.69609061205E+01
5.08036500000E+09	-3.38320898983E+01	-5.67095928853E+01	-5.98727639470E+00	-1.52094911301E+02	-5.99245913091E+00	-1.51849292300E+02	-3.51238666226E+01	5.68583433611E+01
5.08836400000E+09	-3.38289428052E+01	-5.64661101714E+01	-5.98534762089E+00	-1.52334770853E+02	-5.98768371033E+00	-1.52066123913E+02	-3.51360179964E+01	5.71540168424E+01
5.09636300000E+09	-3.38486051580E+01	-5.64633284951E+01	-5.98860095481E+00	-1.52575176961E+02	-5.98178389317E+00	-1.52306156341E+02	-3.51227785822E+01	5.72510907866E+01
5.10436200000E+09	-3.38591615571E+01	-5.62629527657E+01	-5.98884976457E+00	-1.52809973350E+02	-5.97813311831E+00	-1.52577457627E+02	-3.51248807918E+01	5.72253596820E+01
5.11236100000E+09	-3.38919042878E+01	-5.64912447377E+01	-5.98803254732E+00	-1.53087314724E+02	-5.97046389521E+00	-1.52842083961E+02	-3.51659060332E+01	5.71970591151E+01
5.12036000000E+09	-3.39115080273E+01	-5.66805910042E+01	-5.99581807079E+00	-1.53337099336E+02	-5.97252876075E+00	-1.53136975976E+02	-3.51701640326E+01	5.76067402589E+01
5.12835900000E+09	-3.39746568618E+01	-5.67110563741E+01	-6.00070351549E+00	-1.53560045367E+02	-5.97608931209E+00	-1.53403685450E+02	-3.51743063175E+01	5.75655372032E+01
5.13635800000E+09	-3.40095048012E+01	-5.70400157573E+01	-6.00196224158E+00	-1.53786971304E+02	-5.98010023295E+00	-1.53647838169E+02	-3.52141267182E+01	5.74690028350E+01
5.14435700000E+09	-3.40656913414E+01	-5.72371934752E+01	-6.00749021524E+00	-1.53986552885E+02	-5.99049293322E+00	-1.53902851549E+02	-3.51922999765E+01	5.76468454879E+01
5.15235600000E+09	-3.40664878566E+01	-5.75552762586E+01	-6.00750959242E+00	-1.54194940003E+02	-5.99468007409E+00	-1.54129322380E+02	-3.51914182252E+01	5.76867856065E+01
5.16035500000E+09	-3.41235845517E+01	-5.77781393795E+01	-6.00605444823E+00	-1.54390232406E+02	-5.99716864216E+00	-1.54340245009E+02	-3.51790069640E+01	5.74592667241E+01
5.16835400000E+09	-3.41390040509E+01	-5.81301144086E+01	-6.00653808833E+00	-1.54594457123E+02	-6.00233934557E+00	-1.54533002988E+02	-3.51672401416E+01	5.72011711830E+01
5.17635300000E+09	-3.41032516260E+01	-5.85298015651E+01	-5.99867740971E+00	-1.54818085164E+02	-5.99704453362E+00	-1.54725915539E+02	-3.51790947829E+01	5.70166812307E+01
5.18435200000E+09	-3.41273314759E+01	-5.88635014890E+01	-5.98966250955E+00	-1.55054638906E+02	-5.99300429220E+00	-1.54929512694E+02	-3.52052513297E+01	5.67496896378E+01
5.19235100000E+09	-3.41048467672E+01	-5.91426907639E+01	-5.98123839473E+00	-1.55268463974E+02	-5.98748503533E+00	-1.55149261117E+02	-3.51772611017E+01	5.63749455532E+01
5.20035000000E+09	-3.40828255478E+01	-5.93536652693E+01	-5.97769307638E+00	-1.55567575356E+02	-5.98347208223E+00	-1.55396608591E+02	-3.51277406255E+01	5.61192206415E+01
5.20834900000E+09	-3.40518036215E+01	-5.97876593143E+01	-5.97730865005E+00	-1.55838157381E+02	-5.97599587536E+00	-1.55670224955E+02	-3.51145919052E+01	5.57650224490E+01
5.21634800000E+09	-3.40135520939E+01	-5.97015261753E+01	-5.97158818312E+00	-1.56114556746E+02	-5.97274971455E+00	-1.55947018089E+02	-3.50457737846E+01	5.56641715856E+01
5.22434700000E+09	-3.39651110812E+01	-5.97420190626E+01	-5.97429236454E+00	-1.56399186513E+02	-5.97280085443E+00	-1.56213403014E+02	-3.49768678857E+01	5.54849522202E+01
5.23234600000E+09	-3.39352736205E+01	-5.97463045598E+01	-5.97477588952E+00	-1.56684013956E+02	-5.97226603625E+00	-1.56495381219E+02	-3.49504111262E+01	5.53743328936E+01
5.24034500000E+09	-3.38792434593E+01	-5.97634105418E+01	-5.98182199161E+00	-1.56959701943E+02	-5.97496550738E+00	-1.56747139418E+02	-3.48767648514E+01	5.53059396044E+01
5.24834400000E+09	-3.38888687451E+01	-5.95601888244E+01	-5.99022483182E+00	-1.57220893983E+02	-5.98232631888E+00	-1.57024234289E+02	-3.47864878469E+01	5.56142553678E+01
5.25634300000E+09	-3.38773226181E+01	-5.96193664358E+01	-5.99421165068E+00	-1.57466352357E+02	-5.98589557689E+00	-1.57254452789E+02	-3.47112757040E+01	5.59831523826E+01
5.26434200000E+09	-3.38946181859E+01	-5.93574175348E+01	-6.00353053303E+00	-1.57685021521E+02	-5.99287801590E+00	-1.57485723408E+02	-3.46240594340E+01	5.65574093821E+01
5.27234100000E+09	-3.39048956330E+01	-5.90328479020E+01	-6.00731671444E+00	-1.57894514371E+02	-5.99667767898E+00	-1.57694422312E+02	-3.45308010826E+01	5.67352517825E+01
5.28034000000E+09	-3.39355440456E+01	-5.88713890003E+01	-6.00712434404E+00	-1.58091833560E+02	-5.99769070700E+00	-1.57894143258E+02	-3.44695806538E+01	5.72229073299E+01
5.28833900000E+09	-3.39521255577E+01	-5.84747079532E+01	-6.00785228974E+00	-1.58308218675E+02	-5.99631933568E+00	-1.58095885034E+02	-3.43986278945E+01	5.75628011062E+01
5.29633800000E+09	-3.39601464362E+01	-5.85588164864E+01	-6.00539022728E+00	-1.58505361943E+02	-5.99089677159E+00	-1.58315595462E+02	-3.44030643696E+01	5.83457664487E+01
5.30433700000E+09	-3.40251293571E+01	-5.84056969340E+01	-6.00428401980E+00	-1.58732421577E+02	-5.98754998364E+00	-1.58542943754E+02	-3.43843623229E+01	5.87624766246E+01
5.31233600000E+09	-3.40263971133E+01	-5.83539719621E+01	-6.00035245782E+00	-1.58954199701E+02	-5.98022901558E+00	-1.58792506294E+02	-3.44123884680E+01	5.93968053206E+01
5.32033500000E+09	-3.40877965825E+01	-5.83503939033E+01	-5.99845486407E+00	-1.59211762993E+02	-5.97916535417E+00	-1.59058813240E+02	-3.43895528542E+01	5.97396265571E+01
5.32833400000E+09	-3.41209547005E+01	-5.85974758841E+01	-5.99672283340E+00	-1.59452610265E+02	-5.97718033157E+00	-1.59314058169E+02	-3.44356405292E+01	6.02232495252E+01
5.33633300000E+09	-3.41454663668E+01	-5.87749479787E+01	-5.99512398216E+00	-1.59705922180E+02	-5.97820906443E+00	-1.59603627433E+02	-3.44776247011E+01	6.05451886864E+01
5.34433200000E+09	-3.42092579332E+01	-5.87179661605E+01	-5.99504446737E+00	-1.59937390359E+02	-5.98041503664E+00	-1.59859848705E+02	-3.45403077214E+01	6.08054685980E+01
5.35233100000E+09	-3.42167093611E+01	-5.92258329760E+01	-5.99770281869E+00	-1.60194177469E+02	-5.98398037334E+00	-1.60114295278E+02	-3.45602753940E+01	6.10683134070E+01
5.36033000000E+09	-3.42835275937E+01	-5.92786973994E+01	-5.99803046836E+00	-1.60418521655E+02	-5.99010533761E+00	-1.60352450056E+02	-3.46125364496E+01	6.11480356554E+01
5.36832900000E+09	-3.43236102903E+01	-5.93908440907E+01	-5.99818138378E+00	-1.60642855889E+02	-5.99427985995E+00	-1.60575347253E+02	-3.46522809997E+01	6.10501364105E+01
5.37632800000E+09	-3.43388276678E+01	-5.96772695755E+01	-5.99715579206E+00	-1.60874346605E+02	-5.99991186489E+00	-1.60796486611E+02	-3.46803921590E+01	6.07347363392E+01
5.38432700000E+09	-3.43397210898E+01	-5.96630223029E+01	-5.99679029227E+00	-1.61105885835E+02	-5.99898132966E+00	-1.60973992797E+02	-3.46783151633E+01	6.06521209364E+01
5.39232600000E+09	-3.43424618782E+01	-5.97575443863E+01	-5.99322541853E+00	-1.61329310999E+02	-5.99559618783E+00	-1.61181768459E+02	-3.47049891943E+01	6.03933381441E+01
5.40032500000E+09	-3.43816699421E+01	-5.97287198382E+01	-5.99247486247E+00	-1.61575201414E+02	-5.99033090658E+00	-1.61416764429E+02	-3.46896002924E+01	6.00876014258E+01
5.40832400000E+09	-3.43879288985E+01	-5.97966444803E+01	-5.98938207759E+00	-1.61829210935E+02	-5.98463327705E+00	-1.61643790910E+02	-3.46805340880E+01	5.98528570065E+01
5.41632300000E+09	-3.44260258579E+01	-5.98578990917E+01	-5.98722239264E+00	-1.62104829700E+02	-5.97858940545E+00	-1.61902453331E+02	-3.46246725851E+01	5.96692646015E+01
5.42432200000E+09	-3.44160149315E+01	-5.97047816421E+01	-5.98777937253E+00	-1.62376717631E+02	-5.97435622241E+00	-1.62169141505E+02	-3.45898735974E+01	5.95751075629E+01
5.43232100000E+09	-3.44498779193E+01	-5.98443137662E+01	-5.98982238783E+00	-1.62640863202E+02	-5.97319739073E+00	-1.62465486948E+02	-3.45299182179E+01	5.95889985236E+01
5.44032000000E+09	-3.44956760391E+01	-6.01011484102E+01	-5.99284280049E+00	-1.62894701592E+02	-5.97555230926E+00	-1.62745736095E+02	-3.44925109530E+01	5.97102005932E+01
5.44831900000E+09	-3.45365182803E+01	-6.01838561926E+01	-6.00162323377E+00	-1.63141465472E+02	-5.98328619120E+00	-1.63020517693E+02	-3.44186177913E+01	6.00175207876E+01
5.45631800000E+09	-3.45853038838E+01	-6.06416724004E+01	-6.00632313261E+00	-1.63361704409E+02	-5.98619947005E+00	-1.63276426779E+02	-3.43894957330E+01	6.00509197129E+01
5.46431700000E+09	-3.46424143579E+01	-6.06811672878E+01	-6.01019052530E+00	-1.63588934703E+02	-5.99686250040E+00	-1.63522211239E+02	-3.43295072785E+01	6.06261057363E+01
5.47231600000E+09	-3.46683556777E+01	-6.07324992730E+01	-6.01570365932E+00	-1.63791192733E+02	-6.00496005522E+00	-1.63732552325E+02	-3.42625278005E+01	6.07813908258E+01
5.48031500000E+09	-3.47048777779E+01	-6.10535291333E+01	-6.01690084905E+00	-1.63978257444E+02	-6.01022885667E+00	-1.63931272726E+02	-3.42672151520E+01	6.12556595559E+01
5.48831400000E+09	-3.46923496136E+01	-6.13622003651E+01	-6.01423152464E+00	-1.64158849154E+02	-6.01236072621E+00	-1.64106577471E+02	-3.42222655385E+01	6.14569849985E+01
5.49631300000E+09	-3.46871483089E+01	-6.18943461085E+01	-6.00528726157E+00	-1.64371514407E+02	-6.01126165520E+00	-1.64282459297E+02	-3.42476874436E+01	6.16593666859E+01
5.50431200000E+09	-3.46994284128E+01	-6.20578022931E+01	-6.00235555651E+00	-1.64580488710E+02	-6.00613508899E+00	-1.64464473059E+02	-3.42811169694E+01	6.17921108176E+01
5.51231100000E+09	-3.47277284660E+01	-6.24013047969E+01	-5.99483766878E+00	-1.64815058653E+02	-5.99930064252E+00	-1.64669099058E+02	-3.42970111736E+01	6.20201747946E+01
5.52031000000E+09	-3.46832567397E+01	-6.29121381494E+01	-5.98730084671E+00	-1.65076319842E+02	-5.99039422992E+00	-1.64884956126E+02	-3.43350859067E+01	6.21810721180E+01
5.52830900000E+09	-3.46949773115E+01	-6.31085524361E+01	-5.97950081679E+00	-1.65351725435E+02	-5.98191182419E+00	-1.65143435353E+02	-3.43614268872E+01	6.23469351415E+01
5.53630800000E+09	-3.46749568110E+01	-6.35153852033E+01	-5.97642636356E+00	-1.65631449163E+02	-5.97095429637E+00	-1.65411249293E+02	-3.43896905205E+01	6.23777735601E+01
5.54430700000E+09	-3.46697962491E+01	-6.33698152165E+01	-5.97739180195E+00	-1.65919796419E+02	-5.96605167811E+00	-1.65706717923E+02	-3.44249760777E+01	6.23036228329E+01
5.55230600000E+09	-3.46177305012E+01	-6.36444341487E+01	-5.97999632903E+00	-1.66210490815E+02	-5.96346837831E+00	-1.66016200900E+02	-3.44255528769E+01	6.19304035893E+01
5.56030500000E+09	-3.45970806119E+01	-6.37736988314E+01	-5.98680689746E+00	-1.66454907942E+02	-5.96778333653E+00	-1.66297383238E+02	-3.44462412378E+01	6.20055486813E+01
5.56830400000E+09	-3.45744316125E+01	-6.41239895165E+01	-5.99332374407E+00	-1.66730879163E+02	-5.97233387139E+00	-1.66597174563E+02	-3.44741092741E+01	6.17977206051E+01
5.57630300000E+09	-3.45814023795E+01	-6.41929579471E+01	-6.00052038774E+00	-1.66964742314E+02	-5.98114461333E+00	-1.66859120619E+02	-3.44471573755E+01	6.16315131344E+01
5.58430200000E+09	-3.45984640991E+01	-6.40378216800E+01	-6.00581044847E+00	-1.67194449224E+02	-5.99026972907E+00	-1.67114010393E+02	-3.44270489126E+01	6.15465515046E+01
5.59230100000E+09	-3.46431327228E+01	-6.37826589020E+01	-6.00899885859E+00	-1.67405386167E+02	-5.99825099915E+00	-1.67334443533E+02	-3.43716120172E+01	6.16429240757E+01
5.60030000000E+09	-3.46173692898E+01	-6.36241664588E+01	-6.00822634395E+00	-1.67591030662E+02	-6.00351197234E+00	-1.67510515640E+02	-3.43216969572E+01	6.15165066648E+01
5.60829900000E+09	-3.46023297011E+01	-6.35211193044E+01	-6.00422928867E+00	-1.67820345139E+02	-6.00533463226E+00	-1.67720338318E+02	-3.42794004649E+01	6.14636978333E+01
5.61629800000E+09	-3.46387131170E+01	-6.33834184889E+01	-6.00188618792E+00	-1.68029340415E+02	-6.00545964872E+00	-1.67915561057E+02	-3.42178027824E+01	6.14234592500E+01
5.62429700000E+09	-3.46433552666E+01	-6.33606921201E+01	-5.99669688556E+00	-1.68264103156E+02	-6.00192575929E+00	-1.68111031604E+02	-3.41911009450E+01	6.13582505560E+01
5.63229600000E+09	-3.46275953004E+01	-6.35323922169E+01	-5.99167290453E+00	-1.68512993792E+02	-5.99623508837E+00	-1.68325369655E+02	-3.41418166796E+01	6.14893460974E+01
5.64029500000E+09	-3.46625121045E+01	-6.34878871403E+01	-5.98985861406E+00	-1.68795987209E+02	-5.99047805557E+00	-1.68549782583E+02	-3.41156462502E+01	6.15740339795E+01
5.64829400000E+09	-3.46621460835E+01	-6.37394939121E+01	-5.99001888197E+00	-1.69055405433E+02	-5.98539387151E+00	-1.68811057134E+02	-3.40913142189E+01	6.16063699159E+01
5.65629300000E+09	-3.46458018631E+01	-6.37726884031E+01	-5.99304470401E+00	-1.69332901099E+02	-5.98336239487E+00	-1.69077628567E+02	-3.40579885148E+01	6.18814956711E+01
5.66429200000E+09	-3.46342425922E+01	-6.39866821524E+01	-5.99704232646E+00	-1.69598702874E+02	-5.98295269155E+00	-1.69337205675E+02	-3.40498740111E+01	6.19749775455E+01
5.67229100000E+09	-3.46346654944E+01	-6.39583189877E+01	-6.00445134755E+00	-1.69841285158E+02	-5.98486363394E+00	-1.69599510428E+02	-3.40456999454E+01	6.21242973763E+01
5.68029000000E+09	-3.46310525938E+01	-6.40382889288E+01	-6.01069721460E+00	-1.70062089877E+02	-5.98575136526E+00	-1.69838703271E+02	-3.40649683312E+01	6.22240430334E+01
5.68828900000E+09	-3.46107480269E+01	-6.38211608034E+01	-6.01295189935E+00	-1.70283811954E+02	-5.99127006056E+00	-1.70074023096E+02	-3.40581639993E+01	6.21654512631E+01
5.69628800000E+09	-3.46126824574E+01	-6.39623741391E+01	-6.01504344303E+00	-1.70464908111E+02	-5.99295928222E+00	-1.70311632009E+02	-3.40470587797E+01	6.20621038639E+01
5.70428700000E+09	-3.45868805283E+01	-6.37629920745E+01	-6.01684670283E+00	-1.70652141993E+02	-5.99072984961E+00	-1.70520907610E+02	-3.40325540335E+01	6.20536837778E+01
5.71228600000E+09	-3.46024083816E+01	-6.36349706609E+01	-6.01054977728E+00	-1.70838668430E+02	-5.98539152610E+00	-1.70745766923E+02	-3.40050890453E+01	6.19493361420E+01
5.72028500000E+09	-3.46145318185E+01	-6.31951874476E+01	-6.00381402255E+00	-1.71043373640E+02	-5.99183947988E+00	-1.70972487034E+02	-3.40046063939E+01	6.18338478788E+01
5.72828400000E+09	-3.46278868348E+01	-6.32050763091E+01	-5.99514417729E+00	-1.71278706158E+02	-5.98576256888E+00	-1.71202809722E+02	-3.39434005678E+01	6.18195401793E+01
5.73628300000E+09	-3.46642878102E+01	-6.30303933161E+01	-5.98443098623E+00	-1.71536417505E+02	-5.97392008990E+00	-1.71447568341E+02	-3.39494218495E+01	6.18910036016E+01
5.74428200000E+09	-3.46908809157E+01	-6.26192666381E+01	-5.97706992297E+00	-1.71816694642E+02	-5.96639087395E+00	-1.71715148038E+02	-3.38985221917E+01	6.18562686007E+01
5.75228100000E+09	-3.47329635747E+01	-6.24686280318E+01	-5.97212427721E+00	-1.72113623729E+02	-5.97947554069E+00	-1.72012955651E+02	-3.38649726049E+01	6.16691073181E+01
5.76028000000E+09	-3.47819983744E+01	-6.22178115626E+01	-5.97019552047E+00	-1.72445566591E+02	-5.97850872221E+00	-1.72298794811E+02	-3.38380012063E+01	6.17740086159E+01
5.76827900000E+09	-3.47907166756E+01	-6.23279668561E+01	-5.97738496363E+00	-1.72727898315E+02	-5.96690595039E+00	-1.72571756536E+02	-3.37957301020E+01	6.19915777112E+01
5.77627800000E+09	-3.48727419807E+01	-6.24595399868E+01	-5.98510407497E+00	-1.73032718572E+02	-5.97805504332E+00	-1.72862492014E+02	-3.37688588070E+01	6.23013960783E+01
5.78427700000E+09	-3.49682805751E+01	-6.24110181968E+01	-5.99718200972E+00	-1.73299700515E+02	-6.00067312442E+00	-1.73121657580E+02	-3.37308563658E+01	6.24877081445E+01
5.79227600000E+09	-3.50576396654E+01	-6.23712395848E+01	-6.00923450651E+00	-1.73524855714E+02	-6.01224682208E+00	-1.73324914211E+02	-3.36854369777E+01	6.26329232144E+01
5.80027500000E+09	-3.51097502411E+01	-6.22432420904E+01	-6.02057088550E+00	-1.73738537250E+02	-6.00803299973E+00	-1.73525626096E+02	-3.35915886720E+01	6.29282021893E+01
5.80827400000E+09	-3.51742625318E+01	-6.22111269146E+01	-6.02684829467E+00	-1.73929286599E+02	-6.02043940037E+00	-1.73708318545E+02	-3.35616829023E+01	6.26868423285E+01
5.81627300000E+09	-3.51556866228E+01	-6.23062143450E+01	-6.02942984142E+00	-1.74094229306E+02	-6.02220018072E+00	-1.73851559006E+02	-3.35322936164E+01	6.23920219190E+01
5.82427200000E+09	-3.51768760754E+01	-6.26774487205E+01	-6.03061649771E+00	-1.74250961445E+02	-6.02002897955E+00	-1.74034377105E+02	-3.35489855552E+01	6.21874881845E+01
5.83227100000E+09	-3.51689828785E+01	-6.31255690305E+01	-6.02772286079E+00	-1.74431141836E+02	-6.00948094346E+00	-1.74206152692E+02	-3.35809469813E+01	6.21226531757E+01
5.84027000000E+09	-3.51620364702E+01	-6.35227046773E+01	-6.01556642867E+00	-1.74594109498E+02	-6.00450370649E+00	-1.74401351594E+02	-3.35859173463E+01	6.21819891301E+01
5.84826900000E+09	-3.52068793652E+01	-6.36760873784E+01	-6.00505519880E+00	-1.74816436842E+02	-5.98675215588E+00	-1.74643106088E+02	-3.35878178497E+01	6.21976177222E+01
5.85626800000E+09	-3.52102559413E+01	-6.36838429581E+01	-6.00012638776E+00	-1.75065233918E+02	-5.97841706354E+00	-1.74910451777E+02	-3.35523276661E+01	6.21750292631E+01
5.86426700000E+09	-3.52090410254E+01	-6.36962994321E+01	-5.98938066730E+00	-1.75347658819E+02	-5.96508078917E+00	-1.75196435246E+02	-3.35446412711E+01	6.22247445034E+01
5.87226600000E+09	-3.52118128239E+01	-6.38617204388E+01	-5.97965754290E+00	-1.75644651059E+02	-5.95193488635E+00	-1.75517012651E+02	-3.35118610935E+01	6.20771965593E+01
5.88026500000E+09	-3.51975944930E+01	-6.37578342774E+01	-5.98326296242E+00	-1.75940925458E+02	-5.95614928060E+00	-1.75845933802E+02	-3.35015886733E+01	6.19248498132E+01
5.88826400000E+09	-3.52469177067E+01	-6.39044479185E+01	-5.97647391933E+00	-1.76247001871E+02	-5.96630784993E+00	-1.76171470441E+02	-3.34602312597E+01	6.17323848985E+01
5.89626300000E+09	-3.52788630532E+01	-6.38755905153E+01	-5.98303323582E+00	-1.76525463770E+02	-5.97792962183E+00	-1.76481665803E+02	-3.34238356981E+01	6.17905092916E+01
5.90426200000E+09	-3.53247948827E+01	-6.38297005497E+01	-5.98951154333E+00	-1.76797448053E+02	-5.97950242263E+00	-1.76742413519E+02	-3.33478493717E+01	6.23203747267E+01
5.91226100000E+09	-3.53782404356E+01	-6.32911025953E+01	-6.00303527994E+00	-1.77032296849E+02	-6.00054377068E+00	-1.76974346538E+02	-3.32880609253E+01	6.24379420983E+01
5.92026000000E+09	-3.54469194867E+01	-6.29449554853E+01	-6.00789608899E+00	-1.77241479971E+02	-6.00447474690E+00	-1.77171565654E+02	-3.31866564337E+01	6.25041342420E+01
5.92825900000E+09	-3.55120885321E+01	-6.27584701310E+01	-6.01124355526E+00	-1.77449853326E+02	-6.02582418816E+00	-1.77357516084E+02	-3.31750369745E+01	6.22814877527E+01
5.93625800000E+09	-3.55598769222E+01	-6.28013785146E+01	-6.00907660736E+00	-1.77673820550E+02	-6.01695074668E+00	-1.77520637083E+02	-3.30933876091E+01	6.27475073421E+01
5.94425700000E+09	-3.55789700546E+01	-6.26580203740E+01	-6.00466886652E+00	-1.77874836124E+02	-6.01681070832E+00	-1.77685236582E+02	-3.30521700511E+01	6.27871479341E+01
5.95225600000E+09	-3.56409170457E+01	-6.28284016949E+01	-6.00838821181E+00	-1.78100069911E+02	-6.00742966646E+00	-1.77856760070E+02	-3.30215618458E+01	6.29134350375E+01
5.96025500000E+09	-3.57053524954E+01	-6.29828303824E+01	-6.00455687885E+00	-1.78330758784E+02	-6.01175945069E+00	-1.78037093156E+02	-3.30418470816E+01	6.28971634098E+01
5.96825400000E+09	-3.57709293001E+01	-6.33181422198E+01	-6.00139602911E+00	-1.78585249041E+02	-6.00312859094E+00	-1.78268158888E+02	-3.30461907078E+01	6.29698009262E+01
5.97625300000E+09	-3.57852641197E+01	-6.38665423565E+01	-6.00184508385E+00	-1.78828131207E+02	-5.98360920551E+00	-1.78511870669E+02	-3.30429966685E+01	6.32866349077E+01
5.98425200000E+09	-3.58358762630E+01	-6.41475264582E+01	-6.00264914418E+00	-1.79105915210E+02	-5.98232797728E+00	-1.78787245654E+02	-3.30741017991E+01	6.31387481377E+01
5.99225100000E+09	-3.58441037330E+01	-6.45983515928E+01	-6.00337940581E+00	-1.79354177584E+02	-5.97531739441E+00	-1.79079117481E+02	-3.30828184920E+01	6.32280701591E+01
6.00025000000E+09	-3.58793417144E+01	-6.50288259769E+01	-6.00749064410E+00	-1.79609901695E+02	-5.96712602620E+00	-1.79363489107E+02	-3.31299719442E+01	6.33441686614E+01
6.00824900000E+09	-3.59009427922E+01	-6.52274685880E+01	-6.00999421338E+00	-1.79842281275E+02	-5.97399034701E+00	-1.79658808249E+02	-3.31056304959E+01	6.32404077817E+01
6.01624800000E+09	-3.58974005957E+01	-6.55191277082E+01	-6.01571974958E+00	1.79947870959E+02	-5.97909420075E+00	-1.79928906736E+02	-3.30969855459E+01	6.33256644767E+01
6.02424700000E+09	-3.59066620350E+01	-6.56780173389E+01	-6.01630760200E+00	1.79747469479E+02	-5.98289449105E+00	1.79808559583E+02	-3.30841322586E+01	6.31714963211E+01
6.03224600000E+09	-3.59274055926E+01	-6.56990890493E+01	-6.01701425454E+00	1.79557717799E+02	-5.99129170733E+00	1.79568119757E+02	-3.30583667831E+01	6.29892280103E+01
6.04024500000E+09	-3.58982589633E+01	-6.57800549158E+01	-6.01352337679E+00	1.79344832431E+02	-5.99486053998E+00	1.79357248153E+02	-3.30344374949E+01	6.26757257291E+01
6.04824400000E+09	-3.58680180398E+01	-6.53981925290E+01	-6.00633827679E+00	1.79163365235E+02	-5.99836580858E+00	1.79140694469E+02	-3.30043320173E+01	6.24752361164E+01
6.05624300000E+09	-3.58435162008E+01	-6.53661968374E+01	-5.99557958345E+00	1.78922461371E+02	-5.99709448845E+00	1.78946801921E+02	-3.29507605327E+01	6.24033776467E+01
6.06424200000E+09	-3.58782835145E+01	-6.50840271241E+01	-5.98528609907E+00	1.78651552027E+02	-5.99642795725E+00	1.78714251206E+02	-3.29002799899E+01	6.24174732188E+01
6.07224100000E+09	-3.59080337839E+01	-6.50393067600E+01	-5.97833424549E+00	1.78373827459E+02	-5.99215399177E+00	1.78494981109E+02	-3.28379619932E+01	6.23252724445E+01
6.08024000000E+09	-3.59102730453E+01	-6.49469838573E+01	-5.97419846978E+00	1.78062842200E+02	-5.98492851353E+00	1.78267554896E+02	-3.27828665757E+01	6.23545406961E+01
6.08823900000E+09	-3.59356986572E+01	-6.47008754415E+01	-5.97388274986E+00	1.77737927633E+02	-5.98055663697E+00	1.78008428076E+02	-3.27223100951E+01	6.23782976988E+01
6.09623800000E+09	-3.59883620066E+01	-6.46103760936E+01	-5.97902553488E+00	1.77439581802E+02	-5.98499265495E+00	1.77726253105E+02	-3.26963899527E+01	6.23923200115E+01
6.10423700000E+09	-3.60411302316E+01	-6.48209609983E+01	-5.98563824064E+00	1.77133752585E+02	-5.98445557977E+00	1.77461076889E+02	-3.26631471661E+01	6.28019130583E+01
6.11223600000E+09	-3.60673705398E+01	-6.47943737754E+01	-6.00071143839E+00	1.76845282361E+02	-5.98759579815E+00	1.77201311089E+02	-3.26416710540E+01	6.29802229366E+01
6.12023500000E+09	-3.61390136417E+01	-6.49277164073E+01	-6.01272173081E+00	1.76611297195E+02	-5.99123282129E+00	1.76946297604E+02	-3.25918062432E+01	6.32335871938E+01
6.12823400000E+09	-3.61958472073E+01	-6.47973373997E+01	-6.02615723691E+00	1.76415873358E+02	-6.00014568544E+00	1.76714191149E+02	-3.25964819780E+01	6.32552028411E+01
6.13623300000E+09	-3.62368516186E+01	-6.48281262260E+01	-6.03771206937E+00	1.76230460676E+02	-6.00320434558E+00	1.76499215379E+02	-3.25727527823E+01	6.33498251492E+01
6.14423200000E+09	-3.62142572615E+01	-6.49144790382E+01	-6.04308758428E+00	1.76076568262E+02	-6.00705615739E+00	1.76300537203E+02	-3.25772915147E+01	6.31904429502E+01
6.15223100000E+09	-3.62290636066E+01	-6.52141022707E+01	-6.04159067180E+00	1.75935094033E+02	-6.00759457393E+00	1.76111972163E+02	-3.26064448692E+01	6.31132777833E+01
6.16023000000E+09	-3.61820481674E+01	-6.55784476263E+01	-6.03425929194E+00	1.75801309132E+02	-6.00435447478E+00	1.75916054071E+02	-3.26597133117E+01	6.31338477984E+01
6.16822900000E+09	-3.62317084761E+01	-6.59297563459E+01	-6.02405226788E+00	1.75626427776E+02	-5.99572320844E+00	1.75723190803E+02	-3.26999720992E+01	6.30343700556E+01
6.17622800000E+09	-3.62349121887E+01	-6.61890360813E+01	-6.01087894429E+00	1.75420036269E+02	-5.98876754966E+00	1.75480784203E+02	-3.26857294948E+01	6.30313221418E+01
6.18422700000E+09	-3.62562494647E+01	-6.58637982153E+01	-5.99933530172E+00	1.75174571325E+02	-5.97942409949E+00	1.75235525513E+02	-3.26600525753E+01	6.28685453107E+01
6.19222600000E+09	-3.62368552251E+01	-6.59624876655E+01	-5.98554855700E+00	1.74897045075E+02	-5.97261790386E+00	1.74968632517E+02	-3.26560260911E+01	6.25485329653E+01
6.20022500000E+09	-3.61878036753E+01	-6.56211259645E+01	-5.97428466033E+00	1.74574407049E+02	-5.97042008998E+00	1.74656922286E+02	-3.26436213067E+01	6.23161128205E+01
6.20822400000E+09	-3.61910865516E+01	-6.54243755896E+01	-5.97093448018E+00	1.74246300878E+02	-5.96854546925E+00	1.74361269022E+02	-3.26375436781E+01	6.20468694368E+01
6.21622300000E+09	-3.61900427366E+01	-6.51312283600E+01	-5.97255775654E+00	1.73924047377E+02	-5.97108253985E+00	1.74052840231E+02	-3.25965724033E+01	6.19270403730E+01
6.22422200000E+09	-3.62195341489E+01	-6.49930621674E+01	-5.97931238456E+00	1.73630191497E+02	-5.97955096994E+00	1.73778548239E+02	-3.25326239747E+01	6.19980040936E+01
6.23222100000E+09	-3.62774801665E+01	-6.45027806629E+01	-5.99062982747E+00	1.73310172898E+02	-5.98939927670E+00	1.73528784134E+02	-3.24807104700E+01	6.19753105892E+01
6.24022000000E+09	-3.63471329247E+01	-6.42779113774E+01	-5.99894954640E+00	1.73063806537E+02	-5.99996619044E+00	1.73306220810E+02	-3.24028528936E+01	6.17479085892E+01
6.24821900000E+09	-3.63724283623E+01	-6.35098304462E+01	-6.01518237409E+00	1.72839977496E+02	-6.00774871991E+00	1.73097705185E+02	-3.23185590355E+01	6.16946356027E+01
6.25621800000E+09	-3.63952595267E+01	-6.32868461234E+01	-6.02530869079E+00	1.72639677012E+02	-6.01298557444E+00	1.72912884626E+02	-3.22910284497E+01	6.14508800379E+01
6.26421700000E+09	-3.64629469565E+01	-6.31146455982E+01	-6.02754722810E+00	1.72455945402E+02	-6.01459940168E+00	1.72739149664E+02	-3.22458325403E+01	6.14491748279E+01
6.27221600000E+09	-3.64836762917E+01	-6.28226641976E+01	-6.02786922581E+00	1.72279124915E+02	-6.00913251164E+00	1.72563326091E+02	-3.22455617531E+01	6.13330476535E+01
6.28021500000E+09	-3.65376603163E+01	-6.31583306798E+01	-6.02566050002E+00	1.72090992093E+02	-6.00181459138E+00	1.72374844747E+02	-3.22115386702E+01	6.14714194647E+01
6.28821400000E+09	-3.66242023871E+01	-6.32662298271E+01	-6.02170495992E+00	1.71884051158E+02	-5.99313021762E+00	1.72164886216E+02	-3.22434898080E+01	6.15702444276E+01
6.29621300000E+09	-3.67140774489E+01	-6.35253376196E+01	-6.01130650956E+00	1.71663356925E+02	-5.98474432145E+00	1.71895498355E+02	-3.22184419227E+01	6.15936301440E+01
6.30421200000E+09	-3.67986705813E+01	-6.37291913205E+01	-6.00423051257E+00	1.71405165137E+02	-5.97331098981E+00	1.71613235735E+02	-3.21962627102E+01	6.15969851903E+01
6.31221100000E+09	-3.68157581218E+01	-6.39561425899E+01	-5.99980118427E+00	1.71146020674E+02	-5.97048411626E+00	1.71337288192E+02	-3.22006700522E+01	6.16656981163E+01
6.32021000000E+09	-3.68686492243E+01	-6.38716452394E+01	-6.00509318022E+00	1.70871244166E+02	-5.97143690337E+00	1.71025505865E+02	-3.22046967089E+01	6.15904060029E+01
6.32820900000E+09	-3.69140124736E+01	-6.40880018357E+01	-6.00224625326E+00	1.70615075106E+02	-5.96832111326E+00	1.70739470463E+02	-3.22175094920E+01	6.16136272638E+01
6.33620800000E+09	-3.69251503448E+01	-6.41890065423E+01	-6.00423211818E+00	1.70336997376E+02	-5.98288824183E+00	1.70439487250E+02	-3.21985975562E+01	6.14778396432E+01
6.34420700000E+09	-3.69295064745E+01	-6.43051421900E+01	-6.01332863114E+00	1.70086717359E+02	-5.99202838842E+00	1.70188887676E+02	-3.21500022136E+01	6.12531580376E+01
6.35220600000E+09	-3.69698758218E+01	-6.40717799678E+01	-6.02092837114E+00	1.69881664251E+02	-5.99646802612E+00	1.69941000309E+02	-3.21164200647E+01	6.09595240663E+01
6.36020500000E+09	-3.69201065849E+01	-6.38157746603E+01	-6.01708232253E+00	1.69652367639E+02	-6.01144685929E+00	1.69757175794E+02	-3.20686331441E+01	6.06949607625E+01
6.36820400000E+09	-3.68764891187E+01	-6.38317354566E+01	-6.01743996812E+00	1.69456017027E+02	-6.01569159564E+00	1.69575758636E+02	-3.20533220680E+01	6.04682324847E+01
6.37620300000E+09	-3.68973181085E+01	-6.39874864419E+01	-6.01879390337E+00	1.69228407244E+02	-6.01091537531E+00	1.69410786775E+02	-3.20240989121E+01	6.02533965289E+01
6.38420200000E+09	-3.69204157349E+01	-6.33426775798E+01	-6.00926729703E+00	1.69025118468E+02	-6.00814872076E+00	1.69230945616E+02	-3.19855692722E+01	6.01292274325E+01
6.39220100000E+09	-3.69357571034E+01	-6.31883078708E+01	-6.00421130770E+00	1.68789897895E+02	-6.00755808774E+00	1.69032151345E+02	-3.19313279629E+01	5.99057497228E+01
6.40020000000E+09	-3.69611563903E+01	-6.32755159618E+01	-6.00215092860E+00	1.68523410820E+02	-5.99117460355E+00	1.68810362191E+02	-3.19178252116E+01	5.98598571651E+01
6.40819900000E+09	-3.70331885698E+01	-6.28803686201E+01	-5.99257101232E+00	1.68247615339E+02	-5.98153781596E+00	1.68554837054E+02	-3.18738782359E+01	5.99121980412E+01
6.41619800000E+09	-3.70329812950E+01	-6.27791549362E+01	-5.99192791008E+00	1.67957231945E+02	-5.97567729075E+00	1.68300634770E+02	-3.18439437797E+01	5.98321009645E+01
6.42419700000E+09	-3.71207748207E+01	-6.24863648185E+01	-5.99353631231E+00	1.67676411291E+02	-5.96902626436E+00	1.67990469954E+02	-3.18349208000E+01	6.00393549429E+01
6.43219600000E+09	-3.71899611536E+01	-6.23953711596E+01	-6.00161929228E+00	1.67383366529E+02	-5.96396792626E+00	1.67674104969E+02	-3.18302012729E+01	6.02218538532E+01
6.44019500000E+09	-3.73219226555E+01	-6.25460473311E+01	-6.00960936369E+00	1.67107071262E+02	-5.96804011079E+00	1.67375973913E+02	-3.17749023389E+01	6.04249242722E+01
6.44819400000E+09	-3.74068451314E+01	-6.22509200276E+01	-6.01833172260E+00	1.66874948273E+02	-5.97857026049E+00	1.67070199426E+02	-3.17698084743E+01	6.04994136241E+01
6.45619300000E+09	-3.74775791935E+01	-6.20151386691E+01	-6.03227663959E+00	1.66685087687E+02	-5.99151979932E+00	1.66832710038E+02	-3.17241296822E+01	6.03777327018E+01
6.46419200000E+09	-3.75335559654E+01	-6.23200598002E+01	-6.03197052561E+00	1.66488754522E+02	-5.99493638290E+00	1.66563462334E+02	-3.17117435114E+01	6.02892232168E+01
6.47219100000E+09	-3.75272862468E+01	-6.18016473166E+01	-6.03885153200E+00	1.66312026686E+02	-6.01228747481E+00	1.66356215353E+02	-3.17160475049E+01	6.00698494235E+01
6.48019000000E+09	-3.75259716305E+01	-6.22156551326E+01	-6.03679104160E+00	1.66152919383E+02	-6.01519557725E+00	1.66161909602E+02	-3.17283201553E+01	5.97574658036E+01
6.48818900000E+09	-3.75412919747E+01	-6.28488098172E+01	-6.03124342655E+00	1.65966545551E+02	-6.01580473792E+00	1.66010392285E+02	-3.17378065519E+01	5.94370896767E+01
6.49618800000E+09	-3.75872010488E+01	-6.30499831670E+01	-6.01869451264E+00	1.65795117222E+02	-6.01682090257E+00	1.65832123155E+02	-3.17486762245E+01	5.93489757475E+01
6.50418700000E+09	-3.75875057063E+01	-6.31381280127E+01	-6.00972848276E+00	1.65547431518E+02	-6.01505626130E+00	1.65659859591E+02	-3.17400985159E+01	5.91304359177E+01
6.51218600000E+09	-3.76010919537E+01	-6.32008008992E+01	-5.99761912794E+00	1.65278266628E+02	-6.00241769405E+00	1.65445151336E+02	-3.17081431665E+01	5.89855256159E+01
6.52018500000E+09	-3.75868674650E+01	-6.31692930594E+01	-5.98813111376E+00	1.65000396407E+02	-5.99022108525E+00	1.65227402793E+02	-3.16680665932E+01	5.86417577888E+01
6.52818400000E+09	-3.76173513399E+01	-6.27231620289E+01	-5.98433968346E+00	1.64671417836E+02	-5.98050931008E+00	1.64958047732E+02	-3.16334162724E+01	5.82938410784E+01
6.53618300000E+09	-3.75635119923E+01	-6.26154503467E+01	-5.98574192943E+00	1.64346282812E+02	-5.97436593086E+00	1.64671348666E+02	-3.16240763927E+01	5.79905685949E+01
6.54418200000E+09	-3.76024302528E+01	-6.26730242656E+01	-5.99219982849E+00	1.64040808906E+02	-5.96734903925E+00	1.64392552410E+02	-3.15769807299E+01	5.80789332649E+01
6.55218100000E+09	-3.76176246312E+01	-6.22942225502E+01	-6.00019338871E+00	1.63734069633E+02	-5.96832681109E+00	1.64095496727E+02	-3.15282248973E+01	5.80223348815E+01
6.56018000000E+09	-3.76910482906E+01	-6.20505098579E+01	-6.01256459608E+00	1.63486665400E+02	-5.97632901061E+00	1.63795122234E+02	-3.14815906715E+01	5.81098395325E+01
6.56817900000E+09	-3.77450386638E+01	-6.16518129753E+01	-6.02777425338E+00	1.63259926991E+02	-5.98025964988E+00	1.63525104407E+02	-3.14198217833E+01	5.81890518898E+01
6.57617800000E+09	-3.78115687782E+01	-6.11360360041E+01	-6.03636964581E+00	1.63073325837E+02	-5.98472572811E+00	1.63256366885E+02	-3.13565237340E+01	5.81148955806E+01
6.58417700000E+09	-3.78501144673E+01	-6.04492309586E+01	-6.03808597007E+00	1.62915975729E+02	-6.00282643960E+00	1.63025466607E+02	-3.13415754151E+01	5.82459649687E+01
6.59217600000E+09	-3.78932622589E+01	-6.06768420149E+01	-6.04864692324E+00	1.62753642646E+02	-5.99938910815E+00	1.62828212083E+02	-3.13423956914E+01	5.80341790846E+01
6.60017500000E+09	-3.79441180148E+01	-6.06999363895E+01	-6.04255213352E+00	1.62596944587E+02	-6.00407576575E+00	1.62630393535E+02	-3.13235740499E+01	5.79571172100E+01
6.60817400000E+09	-3.80312364815E+01	-6.06892037582E+01	-6.03255364399E+00	1.62404117202E+02	-6.00181796246E+00	1.62424105786E+02	-3.13403538636E+01	5.80142805167E+01
6.61617300000E+09	-3.80811184161E+01	-6.07861946729E+01	-6.02194331086E+00	1.62190763423E+02	-6.00521370923E+00	1.62226251281E+02	-3.13531008934E+01	5.80569841275E+01
6.62417200000E+09	-3.81257078590E+01	-6.09708130658E+01	-6.00784284970E+00	1.61955436235E+02	-5.99510312429E+00	1.62005154607E+02	-3.13416445949E+01	5.79787694682E+01
6.63217100000E+09	-3.81284663312E+01	-6.11643315742E+01	-5.99903017984E+00	1.61678904578E+02	-5.99134495435E+00	1.61768722773E+02	-3.13528450048E+01	5.79807951337E+01
6.64017000000E+09	-3.81937197045E+01	-6.14035793768E+01	-5.99057621085E+00	1.61374041784E+02	-5.98873276523E+00	1.61513284090E+02	-3.13844885683E+01	5.75957265428E+01
6.64816900000E+09	-3.81820122448E+01	-6.13845479513E+01	-5.98951721440E+00	1.61047783738E+02	-5.98522111427E+00	1.61243354517E+02	-3.13788576465E+01	5.74121832696E+01
6.65616800000E+09	-3.82404439142E+01	-6.14699707370E+01	-5.99453575525E+00	1.60745576590E+02	-5.98908059442E+00	1.60979248163E+02	-3.13798453504E+01	5.71120160144E+01
6.66416700000E+09	-3.81687877019E+01	-6.15435604689E+01	-6.00261902925E+00	1.60449886206E+02	-5.99130494853E+00	1.60711811513E+02	-3.13612635931E+01	5.67968285564E+01
6.67216600000E+09	-3.82064547454E+01	-6.14178664375E+01	-6.01543939684E+00	1.60185656894E+02	-5.99803746304E+00	1.60480588779E+02	-3.13332271045E+01	5.64697419025E+01
6.68016500000E+09	-3.82052541050E+01	-6.10642659040E+01	-6.02410641432E+00	1.59958878840E+02	-5.99894990124E+00	1.60234734098E+02	-3.13088222825E+01	5.61749742213E+01
6.68816400000E+09	-3.81983707874E+01	-6.09763696485E+01	-6.03178108848E+00	1.59749455844E+02	-5.99977869233E+00	1.60039587760E+02	-3.12481292234E+01	5.57768283602E+01
6.69616300000E+09	-3.81511924632E+01	-6.08001983560E+01	-6.03594833798E+00	1.59552597518E+02	-6.00184200280E+00	1.59812221284E+02	-3.12347654919E+01	5.54092004975E+01
6.70416200000E+09	-3.81335048768E+01	-6.05629021390E+01	-6.03713488507E+00	1.59391531284E+02	-5.99963227403E+00	1.59611843120E+02	-3.12042603981E+01	5.52299979119E+01
6.71216100000E+09	-3.81254957989E+01	-6.04801184626E+01	-6.03256246840E+00	1.59192334618E+02	-5.99554605953E+00	1.59411777086E+02	-3.11545381110E+01	5.51593121557E+01
6.72016000000E+09	-3.82334977369E+01	-5.99556071159E+01	-6.02781196741E+00	1.59018778771E+02	-5.98780332839E+00	1.59197161822E+02	-3.11095123391E+01	5.52202570175E+01
6.72815900000E+09	-3.82145258715E+01	-5.93028027739E+01	-6.01885287922E+00	1.58800805838E+02	-5.98518318057E+00	1.58941401844E+02	-3.10872700061E+01	5.49912037738E+01
6.73615800000E+09	-3.82391514638E+01	-5.88132786576E+01	-6.01250500422E+00	1.58557903041E+02	-5.97524398291E+00	1.58675852998E+02	-3.10463754273E+01	5.49699998681E+01
6.74415700000E+09	-3.83292403565E+01	-5.84135992082E+01	-6.00419142734E+00	1.58258803448E+02	-5.96897225363E+00	1.58378573142E+02	-3.10417350387E+01	5.51967526068E+01
6.75215600000E+09	-3.83468720539E+01	-5.79933166041E+01	-6.00231455081E+00	1.57955501051E+02	-5.96765534328E+00	1.58079928795E+02	-3.10054379004E+01	5.51788992163E+01
6.76015500000E+09	-3.84288440838E+01	-5.79756283827E+01	-6.00345447283E+00	1.57663023985E+02	-5.97099024408E+00	1.57776908426E+02	-3.10145494886E+01	5.52833252489E+01
6.76815400000E+09	-3.85769759447E+01	-5.76775172026E+01	-6.00587021004E+00	1.57365927966E+02	-5.97733253607E+00	1.57465060466E+02	-3.09922123911E+01	5.54087701062E+01
6.77615300000E+09	-3.86324608207E+01	-5.73863967787E+01	-6.01426419510E+00	1.57106586392E+02	-5.99005443190E+00	1.57189440905E+02	-3.09696371258E+01	5.52486271391E+01
6.78415200000E+09	-3.86981639965E+01	-5.72501169478E+01	-6.02676153781E+00	1.56864070277E+02	-6.00004948361E+00	1.56955800022E+02	-3.09734784671E+01	5.50791918691E+01
6.79215100000E+09	-3.86888763160E+01	-5.69453189111E+01	-6.03149094979E+00	1.56624909610E+02	-6.01398556248E+00	1.56744145114E+02	-3.09928550159E+01	5.46780624905E+01
6.80015000000E+09	-3.87038950712E+01	-5.74969016147E+01	-6.03704415109E+00	1.56445768079E+02	-6.02151926380E+00	1.56581212846E+02	-3.10183518097E+01	5.42962248773E+01
6.80814900000E+09	-3.87218645371E+01	-5.74829483764E+01	-6.03694789899E+00	1.56265207463E+02	-6.02691857819E+00	1.56411933856E+02	-3.10387466877E+01	5.39482609640E+01
6.81614800000E+09	-3.87294049301E+01	-5.76466114187E+01	-6.04090054100E+00	1.56091460853E+02	-6.02387575670E+00	1.56277799886E+02	-3.10882874541E+01	5.34918994046E+01
6.82414700000E+09	-3.87569150606E+01	-5.80533364676E+01	-6.03491356855E+00	1.55888752601E+02	-6.01948397481E+00	1.56118620567E+02	-3.10972302602E+01	5.30290908712E+01
6.83214600000E+09	-3.87546053874E+01	-5.82832172756E+01	-6.02466779109E+00	1.55669904821E+02	-6.00940804692E+00	1.55937199083E+02	-3.10818173223E+01	5.28683025552E+01
6.84014500000E+09	-3.88011366210E+01	-5.77137002714E+01	-6.01684548244E+00	1.55424525902E+02	-5.99504257718E+00	1.55737104817E+02	-3.10571030289E+01	5.24665099081E+01
6.84814400000E+09	-3.87695250686E+01	-5.74096367903E+01	-6.00851243805E+00	1.55167517758E+02	-5.98017929843E+00	1.55475640562E+02	-3.10129870600E+01	5.22127277399E+01
6.85614300000E+09	-3.87838479280E+01	-5.70624920875E+01	-6.00792939133E+00	1.54867548387E+02	-5.96541272331E+00	1.55190112625E+02	-3.09926091287E+01	5.17118902214E+01
6.86414200000E+09	-3.87591693186E+01	-5.70948013926E+01	-6.00864133701E+00	1.54546640923E+02	-5.95552941455E+00	1.54888266814E+02	-3.09239282658E+01	5.16693514266E+01
6.87214100000E+09	-3.87842153490E+01	-5.67248822339E+01	-6.00960349567E+00	1.54265213344E+02	-5.95353666357E+00	1.54541087943E+02	-3.08870005474E+01	5.13213002237E+01
6.88014000000E+09	-3.88109250247E+01	-5.58425154406E+01	-6.02132761606E+00	1.53983491536E+02	-5.95393352627E+00	1.54220463471E+02	-3.08099409005E+01	5.13582223431E+01
6.88813900000E+09	-3.88989258342E+01	-5.55671276060E+01	-6.02834170185E+00	1.53741923605E+02	-5.95720882113E+00	1.53875973437E+02	-3.07369158473E+01	5.12371534850E+01
6.89613800000E+09	-3.89124072887E+01	-5.45908872588E+01	-6.03736891335E+00	1.53533444224E+02	-5.97350394450E+00	1.53583236626E+02	-3.06946251274E+01	5.11222182291E+01
6.90413700000E+09	-3.89462530214E+01	-5.36901031941E+01	-6.04793516533E+00	1.53332809226E+02	-5.98482865673E+00	1.53319681983E+02	-3.06485043198E+01	5.10566352243E+01
6.91213600000E+09	-3.89104379857E+01	-5.36218776762E+01	-6.05162337497E+00	1.53162324835E+02	-6.00200876104E+00	1.53083959811E+02	-3.06155459890E+01	5.08419459066E+01
6.92013500000E+09	-3.89037409168E+01	-5.32713296226E+01	-6.05083044437E+00	1.53001185632E+02	-6.01280366144E+00	1.52886136534E+02	-3.06258710199E+01	5.07550795817E+01
6.92813400000E+09	-3.89895268886E+01	-5.33891345317E+01	-6.03775997174E+00	1.52824619465E+02	-6.02356875514E+00	1.52725239337E+02	-3.06423394079E+01	5.06365642601E+01
6.93613300000E+09	-3.90629675600E+01	-5.34851503377E+01	-6.03023475081E+00	1.52620933634E+02	-6.02717048877E+00	1.52578659655E+02	-3.06671739887E+01	5.06027503978E+01
6.94413200000E+09	-3.90983854850E+01	-5.30523408007E+01	-6.01730358264E+00	1.52395372474E+02	-6.02349478412E+00	1.52421430221E+02	-3.06818637801E+01	5.06002013152E+01
6.95213100000E+09	-3.92285689247E+01	-5.33596785464E+01	-6.00733714805E+00	1.52131891586E+02	-6.01842875652E+00	1.52260583514E+02	-3.06925916596E+01	5.04241995807E+01
6.96013000000E+09	-3.92668721417E+01	-5.35245178426E+01	-5.99920204500E+00	1.51833801258E+02	-6.00869550409E+00	1.52066996530E+02	-3.07083774708E+01	5.02368796081E+01
6.96812900000E+09	-3.92813550111E+01	-5.37727611009E+01	-5.99184247914E+00	1.51506290038E+02	-5.99614533851E+00	1.51849538976E+02	-3.07244823750E+01	4.98232410348E+01
6.97612800000E+09	-3.91931592613E+01	-5.35396960658E+01	-5.99570402987E+00	1.51198011733E+02	-5.98577020759E+00	1.51605232611E+02	-3.07425262381E+01	4.95124742294E+01
6.98412700000E+09	-3.92210191602E+01	-5.39157039292E+01	-6.00470127046E+00	1.50868928341E+02	-5.97664149492E+00	1.51304772196E+02	-3.07370074859E+01	4.92143075145E+01
6.99212600000E+09	-3.92195342073E+01	-5.36942574554E+01	-6.01315394251E+00	1.50586602331E+02	-5.97121420679E+00	1.51035765915E+02	-3.07290817387E+01	4.88803229333E+01
7.00012500000E+09	-3.92949649013E+01	-5.34724473586E+01	-6.02719148058E+00	1.50329317955E+02	-5.96831451662E+00	1.50719142520E+02	-3.07152453641E+01	4.85957949261E+01
7.00812400000E+09	-3.92718390738E+01	-5.30746897676E+01	-6.04222572442E+00	1.50096037458E+02	-5.97026438002E+00	1.50422818775E+02	-3.06687433968E+01	4.82215340040E+01
7.01612300000E+09	-3.92538536552E+01	-5.20544993438E+01	-6.05596250211E+00	1.49927095888E+02	-5.97531985169E+00	1.50147269236E+02	-3.06283967572E+01	4.78617138234E+01
7.02412200000E+09	-3.91879311905E+01	-5.16783581553E+01	-6.05892468777E+00	1.49783032858E+02	-5.98152364578E+00	1.49871025557E+02	-3.05806369865E+01	4.73918398565E+01
7.03212100000E+09	-3.91604547203E+01	-5.13887384483E+01	-6.05934772324E+00	1.49629260485E+02	-5.98985981361E+00	1.49626497263E+02	-3.05374556287E+01	4.70574775666E+01
7.04012000000E+09	-3.91375067760E+01	-5.04833242236E+01	-6.05414911135E+00	1.49467146137E+02	-5.99453923647E+00	1.49393147642E+02	-3.05032039603E+01	4.67719467695E+01
7.04811900000E+09	-3.91759743383E+01	-5.01992650572E+01	-6.04582874943E+00	1.49305125070E+02	-5.99656528882E+00	1.49181946240E+02	-3.04842010006E+01	4.64630410700E+01
7.05611800000E+09	-3.91952984590E+01	-4.95738626931E+01	-6.03234680200E+00	1.49081934042E+02	-5.99475256297E+00	1.48971972220E+02	-3.04479890516E+01	4.64360048916E+01
7.06411700000E+09	-3.92534353619E+01	-4.90574759959E+01	-6.01875669786E+00	1.48827895197E+02	-5.99907174104E+00	1.48759402953E+02	-3.04161338620E+01	4.63543621728E+01
7.07211600000E+09	-3.93281463161E+01	-4.92015333730E+01	-6.00303920216E+00	1.48537978905E+02	-6.00263622873E+00	1.48521505818E+02	-3.04194611609E+01	4.62793633224E+01
7.08011500000E+09	-3.93663430392E+01	-4.85654040405E+01	-6.00001936288E+00	1.48220777910E+02	-5.99554156819E+00	1.48310388134E+02	-3.04132656718E+01	4.64473232279E+01
7.08811400000E+09	-3.94531138740E+01	-4.83382832044E+01	-5.99700482638E+00	1.47896415112E+02	-5.99438941669E+00	1.48077170365E+02	-3.04097442078E+01	4.61092718725E+01
7.09611300000E+09	-3.95671263471E+01	-4.80092328324E+01	-6.00198922108E+00	1.47565421190E+02	-5.99005522707E+00	1.47824526218E+02	-3.03906541915E+01	4.59585297558E+01
7.10411200000E+09	-3.95998674124E+01	-4.82400754640E+01	-6.00934631114E+00	1.47269232152E+02	-5.99199503514E+00	1.47594807484E+02	-3.04126738628E+01	4.59593521298E+01
7.11211100000E+09	-3.95954677993E+01	-4.80332691011E+01	-6.01883181481E+00	1.46984120281E+02	-5.99885280751E+00	1.47360045470E+02	-3.04340597310E+01	4.56579910091E+01
7.12011000000E+09	-3.96833020246E+01	-4.80269727508E+01	-6.03715381719E+00	1.46748301702E+02	-5.99276940350E+00	1.47135159712E+02	-3.04781382144E+01	4.52977016282E+01
7.12810900000E+09	-3.96345612878E+01	-4.80931175590E+01	-6.04765312426E+00	1.46548162269E+02	-5.99528552320E+00	1.46907033510E+02	-3.04567497059E+01	4.48722048072E+01
7.13610800000E+09	-3.96652783530E+01	-4.82386665465E+01	-6.05607989119E+00	1.46384237605E+02	-5.99290256938E+00	1.46698038145E+02	-3.04689770295E+01	4.45556873905E+01
7.14410700000E+09	-3.96956316707E+01	-4.79959834981E+01	-6.05691654069E+00	1.46206984587E+02	-5.99795959245E+00	1.46463944841E+02	-3.04738335564E+01	4.40998439387E+01
7.15210600000E+09	-3.96698942397E+01	-4.81233822105E+01	-6.05691443730E+00	1.46037165605E+02	-5.99280832919E+00	1.46223180034E+02	-3.04740413991E+01	4.37733435628E+01
7.16010500000E+09	-3.96163309430E+01	-4.79102360120E+01	-6.05294127594E+00	1.45862501324E+02	-5.97943731797E+00	1.45986094277E+02	-3.04475265421E+01	4.33178083933E+01
7.16810400000E+09	-3.95821422016E+01	-4.73402412768E+01	-6.04289471940E+00	1.45662223661E+02	-5.97584961262E+00	1.45746210897E+02	-3.04245137076E+01	4.30327521119E+01
7.17610300000E+09	-3.95725618505E+01	-4.73985713964E+01	-6.02962263960E+00	1.45431723378E+02	-5.97279106180E+00	1.45473667828E+02	-3.03728330196E+01	4.26341358190E+01
7.18410200000E+09	-3.95577866821E+01	-4.68159963914E+01	-6.02092010694E+00	1.45166392682E+02	-5.97326149691E+00	1.45202924282E+02	-3.03416388382E+01	4.21807666638E+01
7.19210100000E+09	-3.95080259726E+01	-4.65339869004E+01	-6.01518284200E+00	1.44880521155E+02	-5.97095301965E+00	1.44903505115E+02	-3.03171607497E+01	4.18127001966E+01
7.20010000000E+09	-3.94925038872E+01	-4.58305379992E+01	-6.01149045315E+00	1.44574118533E+02	-5.97322795746E+00	1.44624735920E+02	-3.02923107171E+01	4.16849606122E+01
7.20809900000E+09	-3.94597708803E+01	-4.50780875467E+01	-6.01595149007E+00	1.44270126301E+02	-5.97772100189E+00	1.44345141415E+02	-3.02097965910E+01	4.15327632123E+01
7.21609800000E+09	-3.95313400365E+01	-4.46460552219E+01	-6.02085815647E+00	1.44007193581E+02	-5.98458172471E+00	1.44058094631E+02	-3.02235748550E+01	4.13010444951E+01
7.22409700000E+09	-3.95318679472E+01	-4.40084659228E+01	-6.03088357074E+00	1.43737076925E+02	-5.99583231726E+00	1.43817521331E+02	-3.01932624906E+01	4.11613481825E+01
7.23209600000E+09	-3.95353122690E+01	-4.36475325209E+01	-6.04271990055E+00	1.43489156924E+02	-6.00613118724E+00	1.43584445935E+02	-3.01373869394E+01	4.09044607256E+01
7.24009500000E+09	-3.95612675038E+01	-4.33770073322E+01	-6.04711519167E+00	1.43278561913E+02	-6.01380324902E+00	1.43398268200E+02	-3.01825469476E+01	4.06413953778E+01
7.24809400000E+09	-3.96537434662E+01	-4.35895067471E+01	-6.04978565330E+00	1.43096049897E+02	-6.02053753238E+00	1.43229591906E+02	-3.01877740532E+01	4.02324353814E+01
7.25609300000E+09	-3.97610338791E+01	-4.35974019816E+01	-6.05087338004E+00	1.42900119025E+02	-6.02090990419E+00	1.43062078537E+02	-3.01983564170E+01	4.01355944787E+01
7.26409200000E+09	-3.97381807951E+01	-4.32140750916E+01	-6.05072453000E+00	1.42719284956E+02	-6.02033508939E+00	1.42877094700E+02	-3.02194054513E+01	3.97933795833E+01
7.27209100000E+09	-3.98208941837E+01	-4.31404541676E+01	-6.04720069280E+00	1.42516780655E+02	-6.01131697281E+00	1.42705309531E+02	-3.02308726079E+01	3.95388185805E+01
7.28009000000E+09	-3.98286348967E+01	-4.36985501214E+01	-6.03937122836E+00	1.42285521219E+02	-6.00379456700E+00	1.42497189926E+02	-3.02377784519E+01	3.93451224758E+01
7.28808900000E+09	-3.98526208527E+01	-4.36398161573E+01	-6.03270126033E+00	1.42042134331E+02	-5.98992926257E+00	1.42273873186E+02	-3.02386282398E+01	3.88805590044E+01
7.29608800000E+09	-3.98210198685E+01	-4.34295026921E+01	-6.02596420123E+00	1.41792234546E+02	-5.97654449960E+00	1.42013581095E+02	-3.02385727200E+01	3.84195567361E+01
7.30408700000E+09	-3.98555607101E+01	-4.32407184621E+01	-6.02507668054E+00	1.41513912116E+02	-5.96752317372E+00	1.41744616810E+02	-3.02198829826E+01	3.78448608584E+01
7.31208600000E+09	-3.98086620109E+01	-4.28015660428E+01	-6.02677132120E+00	1.41224113396E+02	-5.96290350300E+00	1.41434425670E+02	-3.01873855960E+01	3.75767378441E+01
7.32008500000E+09	-3.98048522063E+01	-4.28289145844E+01	-6.03088088384E+00	1.40948449087E+02	-5.95724717855E+00	1.41130810778E+02	-3.01422391898E+01	3.69948165041E+01
7.32808400000E+09	-3.96688672081E+01	-4.25172511498E+01	-6.03531261801E+00	1.40692324496E+02	-5.96182133631E+00	1.40796739974E+02	-3.00874366094E+01	3.66568709892E+01
7.33608300000E+09	-3.96070378326E+01	-4.18980884954E+01	-6.04160880367E+00	1.40462775465E+02	-5.96691136199E+00	1.40501592940E+02	-3.00363575783E+01	3.63409448694E+01
7.34408200000E+09	-3.95109253876E+01	-4.14467307509E+01	-6.04726563830E+00	1.40237142436E+02	-5.97825174713E+00	1.40204910141E+02	-2.99897264542E+01	3.59453069487E+01
7.35208100000E+09	-3.94459483901E+01	-4.11534738237E+01	-6.05293733330E+00	1.40038769367E+02	-5.98814902507E+00	1.39933266529E+02	-2.99445624741E+01	3.53600519809E+01
7.36008000000E+09	-3.93744613987E+01	-4.05935048843E+01	-6.05384209191E+00	1.39840472519E+02	-6.00147144612E+00	1.39711853188E+02	-2.98882763459E+01	3.51416179604E+01
7.36807900000E+09	-3.93568032795E+01	-4.03964691921E+01	-6.05258775293E+00	1.39636954813E+02	-6.01386168895E+00	1.39516792597E+02	-2.99235688279E+01	3.48884563318E+01
7.37607800000E+09	-3.93272798383E+01	-3.98641139054E+01	-6.04727630597E+00	1.39431825177E+02	-6.01839559741E+00	1.39318038476E+02	-2.98926449409E+01	3.47650562892E+01
7.38407700000E+09	-3.93704577663E+01	-3.95336537137E+01	-6.04104605418E+00	1.39221526556E+02	-6.02542216509E+00	1.39187844434E+02	-2.98715793526E+01	3.45590629644E+01
7.39207600000E+09	-3.94568391635E+01	-3.88252061671E+01	-6.03286722747E+00	1.38971364380E+02	-6.02108853629E+00	1.39029715054E+02	-2.98493050746E+01	3.46201908964E+01
7.40007500000E+09	-3.95737636842E+01	-3.81621562076E+01	-6.02745484727E+00	1.38715781254E+02	-6.01286538256E+00	1.38846607834E+02	-2.98500511709E+01	3.44830025681E+01
7.40807400000E+09	-3.96078562841E+01	-3.76596400245E+01	-6.02299271958E+00	1.38434317512E+02	-6.00238843411E+00	1.38644389769E+02	-2.98825734405E+01	3.42281842592E+01
7.41607300000E+09	-3.96756048895E+01	-3.74334653822E+01	-6.02261561504E+00	1.38148840138E+02	-5.99259938290E+00	1.38424514544E+02	-2.98830424150E+01	3.40849395113E+01
7.42407200000E+09	-3.97075107753E+01	-3.71750016928E+01	-6.02255422746E+00	1.37848115899E+02	-5.98141540247E+00	1.38186567522E+02	-2.98954296550E+01	3.37346201643E+01
7.43207100000E+09	-3.98410059793E+01	-3.67367011299E+01	-6.02998615057E+00	1.37558683409E+02	-5.97064630677E+00	1.37885587857E+02	-2.98970591315E+01	3.35674940810E+01
7.44007000000E+09	-3.98813607057E+01	-3.64591834965E+01	-6.03590438202E+00	1.37330705468E+02	-5.96520233638E+00	1.37592513771E+02	-2.99027024580E+01	3.31445163965E+01
7.44806900000E+09	-3.98621779828E+01	-3.65402944068E+01	-6.04678322661E+00	1.37082318683E+02	-5.96133266041E+00	1.37291001077E+02	-2.98621600492E+01	3.27059331248E+01
7.45606800000E+09	-3.98606983941E+01	-3.64877671028E+01	-6.05252730206E+00	1.36872059067E+02	-5.96282942983E+00	1.36957394110E+02	-2.98675486033E+01	3.21998244161E+01
7.46406700000E+09	-3.97346418899E+01	-3.63568298797E+01	-6.05587853391E+00	1.36692672860E+02	-5.96946433106E+00	1.36655218560E+02	-2.98342953006E+01	3.15705999049E+01
7.47206600000E+09	-3.96909519292E+01	-3.65872511316E+01	-6.05772550363E+00	1.36486815628E+02	-5.97629057942E+00	1.36373256691E+02	-2.98071914020E+01	3.10855320590E+01
7.48006500000E+09	-3.96351608528E+01	-3.68721939511E+01	-6.05441820312E+00	1.36305377402E+02	-5.98759584412E+00	1.36116446991E+02	-2.97797702773E+01	3.04425486782E+01
7.48806400000E+09	-3.94758188615E+01	-3.72363311197E+01	-6.04984162244E+00	1.36117183789E+02	-5.99788469700E+00	1.35875490603E+02	-2.97512604549E+01	2.99982003207E+01
7.49606300000E+09	-3.94807256051E+01	-3.73977775417E+01	-6.04380902708E+00	1.35896355979E+02	-6.00831745369E+00	1.35678450987E+02	-2.97147322869E+01	2.95828179457E+01
7.50406200000E+09	-3.93804229851E+01	-3.70123720880E+01	-6.03650858730E+00	1.35666526365E+02	-6.01430804054E+00	1.35487294063E+02	-2.96772857652E+01	2.92757338060E+01
7.51206100000E+09	-3.93432280541E+01	-3.68244977605E+01	-6.02881736673E+00	1.35384058081E+02	-6.01746875710E+00	1.35318235204E+02	-2.96506869388E+01	2.90747465833E+01
7.52006000000E+09	-3.93182350778E+01	-3.62509035325E+01	-6.02480311306E+00	1.35108309122E+02	-6.01802482224E+00	1.35138486560E+02	-2.96167237413E+01	2.89090619442E+01
7.52805900000E+09	-3.92388024307E+01	-3.55991479917E+01	-6.02416472228E+00	1.34814268293E+02	-6.01319125803E+00	1.34970425737E+02	-2.95985321337E+01	2.85782660753E+01
7.53605800000E+09	-3.92270698242E+01	-3.49320635773E+01	-6.02482551304E+00	1.34522009777E+02	-6.00680922564E+00	1.34765282168E+02	-2.95796086212E+01	2.85888822211E+01
7.54405700000E+09	-3.92997783414E+01	-3.41401940007E+01	-6.02916437107E+00	1.34257550814E+02	-5.99895733482E+00	1.34552768835E+02	-2.95710594840E+01	2.83490626223E+01
7.55205600000E+09	-3.92576819436E+01	-3.35178784987E+01	-6.04025670692E+00	1.33968949335E+02	-5.98935122534E+00	1.34316811505E+02	-2.95461177396E+01	2.81942712000E+01
7.56005500000E+09	-3.93254418578E+01	-3.22068254080E+01	-6.04736221957E+00	1.33727339040E+02	-5.98211470539E+00	1.34060970503E+02	-2.95424362760E+01	2.80208037979E+01
7.56805400000E+09	-3.94284838487E+01	-3.20776670886E+01	-6.05453569450E+00	1.33522475147E+02	-5.97583853759E+00	1.33769846465E+02	-2.95560152497E+01	2.79525953521E+01
7.57605300000E+09	-3.94572301843E+01	-3.16058736426E+01	-6.06203200197E+00	1.33310663422E+02	-5.97275581634E+00	1.33487108858E+02	-2.95637836317E+01	2.75840077018E+01
7.58405200000E+09	-3.94722135417E+01	-3.14022614224E+01	-6.06505895988E+00	1.33127519513E+02	-5.97406468083E+00	1.33203446007E+02	-2.95487723605E+01	2.72322897831E+01
7.59205100000E+09	-3.95167615290E+01	-3.12848614694E+01	-6.06527707618E+00	1.32938737179E+02	-5.97826837078E+00	1.32926826144E+02	-2.95460905043E+01	2.67595703516E+01
7.60005000000E+09	-3.95123297993E+01	-3.11456372126E+01	-6.06234406596E+00	1.32768632004E+02	-5.98037989171E+00	1.32663920543E+02	-2.95747027419E+01	2.61395873181E+01
7.60804900000E+09	-3.95488222411E+01	-3.16840573412E+01	-6.05818588380E+00	1.32560820668E+02	-5.98693801348E+00	1.32393902332E+02	-2.95727885952E+01	2.55592832984E+01
7.61604800000E+09	-3.95776932646E+01	-3.18637184484E+01	-6.05079151538E+00	1.32345962204E+02	-5.99219660202E+00	1.32186550734E+02	-2.95536006826E+01	2.51305215760E+01
7.62404700000E+09	-3.96042250087E+01	-3.25560139677E+01	-6.03977046629E+00	1.32101329295E+02	-5.99532050301E+00	1.31943581494E+02	-2.95618741105E+01	2.47479084068E+01
7.63204600000E+09	-3.96151311901E+01	-3.23037337519E+01	-6.03177019138E+00	1.31843078699E+02	-5.99571092076E+00	1.31738353301E+02	-2.95208218051E+01	2.41829456856E+01
7.64004500000E+09	-3.95486689825E+01	-3.30014084667E+01	-6.02819795136E+00	1.31567119273E+02	-5.99728034045E+00	1.31509885661E+02	-2.94838361174E+01	2.37198142532E+01
7.64804400000E+09	-3.94538082642E+01	-3.32512000843E+01	-6.02444861717E+00	1.31279974026E+02	-5.99545701480E+00	1.31293550282E+02	-2.94239192001E+01	2.33557277030E+01
7.65604300000E+09	-3.93010667782E+01	-3.29812742408E+01	-6.02460203365E+00	1.30977982557E+02	-5.99374931591E+00	1.31065297130E+02	-2.93799328750E+01	2.28896631753E+01
7.66404200000E+09	-3.92449845481E+01	-3.26184406787E+01	-6.03271984579E+00	1.30691659040E+02	-5.98996929436E+00	1.30825930882E+02	-2.93393531860E+01	2.26837253937E+01
7.67204100000E+09	-3.91269753366E+01	-3.25017299772E+01	-6.03586181147E+00	1.30411888780E+02	-5.98872937680E+00	1.30563451340E+02	-2.93020191409E+01	2.23935474506E+01
7.68004000000E+09	-3.90881606580E+01	-3.21871882839E+01	-6.04219972930E+00	1.30148383000E+02	-5.99194761931E+00	1.30329411579E+02	-2.92709292217E+01	2.20279417925E+01
7.68803900000E+09	-3.89679942162E+01	-3.19120857454E+01	-6.05442970682E+00	1.29932775015E+02	-5.99043942087E+00	1.30074755342E+02	-2.92309715028E+01	2.18710542603E+01
7.69603800000E+09	-3.89009096310E+01	-3.14040238928E+01	-6.06257426589E+00	1.29713565197E+02	-5.99530833295E+00	1.29817932669E+02	-2.92286483276E+01	2.15854579931E+01
7.70403700000E+09	-3.88519925324E+01	-3.09472838109E+01	-6.07105228236E+00	1.29529036650E+02	-5.99890827354E+00	1.29596519794E+02	-2.92303700465E+01	2.13913263257E+01
7.71203600000E+09	-3.89004334618E+01	-3.01463546500E+01	-6.07060321351E+00	1.29352342891E+02	-5.99915343145E+00	1.29360354972E+02	-2.92350051588E+01	2.14022721538E+01
7.72003500000E+09	-3.88748948788E+01	-2.98851275173E+01	-6.07357821875E+00	1.29163214727E+02	-6.00311929643E+00	1.29148536858E+02	-2.92539901270E+01	2.10808408670E+01
7.72803400000E+09	-3.89957331816E+01	-2.91567302184E+01	-6.06976204526E+00	1.28983485347E+02	-6.00125203678E+00	1.28957276307E+02	-2.92605468007E+01	2.07931996082E+01
7.73603300000E+09	-3.90117493941E+01	-2.84054028577E+01	-6.06412841240E+00	1.28785760741E+02	-5.99761515037E+00	1.28737183478E+02	-2.92726997833E+01	2.03962404818E+01
7.74403200000E+09	-3.90967861357E+01	-2.74647988657E+01	-6.05140366973E+00	1.28596294820E+02	-5.98960581940E+00	1.28499351091E+02	-2.92780587588E+01	2.01358579691E+01
7.75203100000E+09	-3.91015023532E+01	-2.74123606361E+01	-6.04630615263E+00	1.28333393366E+02	-5.98341969371E+00	1.28269087755E+02	-2.92814276540E+01	1.97428763276E+01
7.76003000000E+09	-3.91364085037E+01	-2.71582308466E+01	-6.04108505414E+00	1.28080987693E+02	-5.97868029511E+00	1.28018427519E+02	-2.92828736128E+01	1.91309821284E+01
7.76802900000E+09	-3.91401763788E+01	-2.74614108921E+01	-6.03124730390E+00	1.27833771645E+02	-5.97451598669E+00	1.27751205794E+02	-2.92651960725E+01	1.85589707843E+01
7.77602800000E+09	-3.91911761490E+01	-2.76948565383E+01	-6.02849962593E+00	1.27542963725E+02	-5.96999760241E+00	1.27439345808E+02	-2.92516197454E+01	1.79674569139E+01
7.78402700000E+09	-3.91766386144E+01	-2.82989535422E+01	-6.02751581017E+00	1.27274539586E+02	-5.97485065579E+00	1.27135693657E+02	-2.92196202606E+01	1.73853897882E+01
7.79202600000E+09	-3.91085910822E+01	-2.89046898143E+01	-6.02824679052E+00	1.26969112140E+02	-5.97943945184E+00	1.26875042878E+02	-2.91888592778E+01	1.68242635873E+01
7.80002500000E+09	-3.90932360563E+01	-2.96168470657E+01	-6.02663620949E+00	1.26706819014E+02	-5.98614246736E+00	1.26593167836E+02	-2.91218896269E+01	1.62587880810E+01
7.80802400000E+09	-3.89994324780E+01	-3.00411451423E+01	-6.03455218790E+00	1.26406680989E+02	-5.99689770831E+00	1.26344147240E+02	-2.90701859148E+01	1.58321772255E+01
7.81602300000E+09	-3.89205136778E+01	-3.03343415487E+01	-6.03875775321E+00	1.26168776764E+02	-6.00559145552E+00	1.26144422815E+02	-2.90140084686E+01	1.52660839334E+01
7.82402200000E+09	-3.88103978559E+01	-3.02821401583E+01	-6.04242239630E+00	1.25938935945E+02	-6.01091805167E+00	1.25947464492E+02	-2.89978461405E+01	1.51432157494E+01
7.83202100000E+09	-3.87477467888E+01	-3.05183569462E+01	-6.04923739653E+00	1.25690779099E+02	-6.01559086506E+00	1.25791787202E+02	-2.89724306499E+01	1.48812101360E+01
7.84002000000E+09	-3.86471174656E+01	-3.03546872235E+01	-6.05123320185E+00	1.25471902556E+02	-6.00947325468E+00	1.25609079515E+02	-2.89372007121E+01	1.46173289207E+01
7.84801900000E+09	-3.86052039002E+01	-2.93725600290E+01	-6.05824836580E+00	1.25244238735E+02	-6.00866154160E+00	1.25440193301E+02	-2.89222994697E+01	1.44205373375E+01
7.85601800000E+09	-3.85269661071E+01	-2.82740963796E+01	-6.05984488734E+00	1.25023959551E+02	-5.99699378438E+00	1.25232086960E+02	-2.89131926038E+01	1.43835017989E+01
7.86401700000E+09	-3.84752368326E+01	-2.76478628024E+01	-6.06071715726E+00	1.24812186793E+02	-5.98398544467E+00	1.25001196698E+02	-2.89046216427E+01	1.43345321374E+01
7.87201600000E+09	-3.84337095354E+01	-2.64391468700E+01	-6.06170753879E+00	1.24575509761E+02	-5.97321901628E+00	1.24725842697E+02	-2.88885262744E+01	1.42434424061E+01
7.88001500000E+09	-3.83998023614E+01	-2.57210140027E+01	-6.06333866599E+00	1.24375249635E+02	-5.96385387912E+00	1.24444041267E+02	-2.88723643457E+01	1.39448371190E+01
7.88801400000E+09	-3.83919062667E+01	-2.50594293143E+01	-6.06595647530E+00	1.24166773556E+02	-5.95778168525E+00	1.24116315789E+02	-2.88802620873E+01	1.35743720889E+01
7.89601300000E+09	-3.84146300669E+01	-2.49098738975E+01	-6.06534504567E+00	1.23952498677E+02	-5.95896432067E+00	1.23785486512E+02	-2.89036655204E+01	1.29597758055E+01
7.90401200000E+09	-3.83835845680E+01	-2.46742518795E+01	-6.06431289468E+00	1.23748802456E+02	-5.96548447672E+00	1.23459897428E+02	-2.89221183971E+01	1.24014776468E+01
7.91201100000E+09	-3.84815081837E+01	-2.45943519942E+01	-6.06302316969E+00	1.23571161801E+02	-5.97862408978E+00	1.23163751447E+02	-2.89224958175E+01	1.18886218631E+01
7.92001000000E+09	-3.85321588542E+01	-2.48685781294E+01	-6.05815881975E+00	1.23342138259E+02	-5.98614864122E+00	1.22900810465E+02	-2.89491879973E+01	1.10646878757E+01
7.92800900000E+09	-3.86344227422E+01	-2.51694702232E+01	-6.04837747700E+00	1.23133757285E+02	-6.00851753562E+00	1.22701371299E+02	-2.89441258304E+01	1.04557219603E+01
7.93600800000E+09	-3.87819570477E+01	-2.54935187032E+01	-6.04327027846E+00	1.22903437118E+02	-6.01467688184E+00	1.22529404913E+02	-2.89283726296E+01	9.98175034012E+00
7.94400700000E+09	-3.89094599147E+01	-2.57358092045E+01	-6.03226587204E+00	1.22661537123E+02	-6.02429185384E+00	1.22371466082E+02	-2.89084746621E+01	9.38770399442E+00
7.95200600000E+09	-3.88627840023E+01	-2.60205135427E+01	-6.02278543227E+00	1.22398696137E+02	-6.02418728207E+00	1.22241283542E+02	-2.88551831293E+01	8.80346913573E+00
7.96000500000E+09	-3.87264929439E+01	-2.63411276432E+01	-6.01374885916E+00	1.22106811361E+02	-6.01709168650E+00	1.22098500624E+02	-2.87981984603E+01	8.18525624839E+00
7.96800400000E+09	-3.86393658271E+01	-2.70585385613E+01	-6.01282545091E+00	1.21783768627E+02	-6.00440349097E+00	1.21918058640E+02	-2.87428582674E+01	7.71080365772E+00
7.97600300000E+09	-3.85787305977E+01	-2.77466000539E+01	-6.01467756515E+00	1.21450415466E+02	-5.99055219734E+00	1.21705592929E+02	-2.86561669390E+01	7.39030341162E+00
7.98400200000E+09	-3.84694000007E+01	-2.77312442938E+01	-6.02083261919E+00	1.21139692677E+02	-5.97255055570E+00	1.21442153501E+02	-2.86013621262E+01	7.08395023168E+00
7.99200100000E+09	-3.83546596300E+01	-2.78451110582E+01	-6.03210711350E+00	1.20837941938E+02	-5.95921054898E+00	1.21169742639E+02	-2.85473536155E+01	6.88136422913E+00
8.00000000000E+09	-3.82243627065E+01	-2.76255304077E+01	-6.04608236214E+00	1.20550722608E+02	-5.94969158084E+00	1.20808388730E+02	-2.84755543483E+01	6.74464564905E+00
